BEGIN IONS
PEPMASS=632.341
TITLE=CCMSLIB00000478091
SPECTRUMID=CCMSLIB00000478091
COMPOUND_NAME=Apicidin B_120250
ADDUCT=[M+Na]1+
ION_MODE=positive
SMILES=CCC(=O)CCCCCC1NC(=O)C2CCCN2C(=O)C(C(C)CC)NC(=O)C(Cc2cn(OC)c3ccccc23)NC1=O
COLLISION_ENERGY=37.0
MS_MANUFACTURER=Bruker Daltonics
130.066544 480.0
165.095856 432.0
180.085403 448.0
190.117783 344.0
191.111084 552.0
205.13028 544.0
206.137436 340.0
207.095871 604.0
218.100571 428.0
219.105042 284.0
220.111526 324.0
232.128723 880.0
238.117401 332.0
247.151596 320.0
249.143478 1088.0
253.198837 360.0
260.134125 396.0
261.141266 552.0
262.151306 652.0
263.12677 396.0
263.160553 700.0
273.157379 632.0
274.162537 368.0
275.172211 1128.0
276.167694 1224.0
277.173431 352.0
286.14093 308.0
289.139771 312.0
289.184692 652.0
291.141357 344.0
301.660278 512.0
302.158813 864.0
303.154968 452.0
304.14502 424.0
304.201477 436.0
305.210175 392.0
306.217224 532.0
309.651337 856.0
310.153809 444.0
314.676971 456.0
316.165222 456.0
317.160034 516.0
318.168488 380.0
318.213043 1356.0
330.182465 444.0
331.195923 1016.0
332.228485 1564.0
333.202301 1064.0
333.238068 492.0
334.197601 496.0
335.15741 252.0
343.195038 1340.0
344.202667 320.0
345.143555 396.0
345.193359 296.0
346.158386 384.0
346.210754 608.0
347.206757 316.0
358.213593 444.0
359.168671 3212.0
360.169434 1724.0
361.174194 660.0
371.226685 536.0
372.234711 1144.0
373.19812 1036.0
373.239502 580.0
374.200104 1292.0
375.202454 328.0
387.199982 912.0
387.236786 796.0
388.207184 940.0
389.21814 508.0
389.266815 1712.0
390.267029 292.0
400.225555 512.0
401.214203 2924.0
402.217773 948.0
403.245483 300.0
404.228638 332.0
414.232147 768.0
415.230286 7844.0
416.232056 1332.0
417.239685 452.0
421.729858 268.0
429.262512 364.0
430.267487 276.0
443.222198 840.0
444.230377 252.0
457.246887 432.0
460.234985 336.0
472.263824 1652.0
473.269073 280.0
488.234589 464.0
489.22525 428.0
530.268738 632.0
531.284607 604.0
534.786072 368.0
544.30127 280.0
574.343689 524.0
584.322998 284.0
584.816589 264.0
598.309753 404.0
598.815125 844.0
599.3172 272.0
599.826843 516.0
600.812988 288.0
601.321655 3588.0
602.326599 1684.0
603.334778 1016.0
604.338928 416.0
613.830261 460.0
614.332703 296.0
615.326843 260.0
629.335022 3116.0
629.830994 2044.0
630.335815 1872.0
630.838623 720.0
631.244263 452.0
631.339539 404.0
631.824646 288.0
632.340698 21412.0
633.343933 9144.0
634.350525 1836.0
636.323914 316.0
END IONS

BEGIN IONS
PEPMASS=632.343
TITLE=CCMSLIB00000478093
SPECTRUMID=CCMSLIB00000478093
COMPOUND_NAME=Apicidin C_120251
ADDUCT=[M+Na]1+
ION_MODE=positive
SMILES=CCC(=O)CCCCCC1NC(=O)C2CCCCN2C(=O)C(C(C)C)NC(=O)C(Cc2cn(OC)c3ccccc23)NC1=O
COLLISION_ENERGY=37.0
MS_MANUFACTURER=Bruker Daltonics
130.06459 860.0
136.072159 936.0
149.070923 448.0
150.088196 268.0
151.082855 792.0
156.136276 452.0
160.072723 404.0
161.069748 392.0
165.067963 272.0
170.061569 488.0
176.1035 436.0
177.109467 856.0
179.126938 456.0
183.14772 292.0
183.585617 264.0
185.071686 348.0
190.120285 880.0
191.074402 260.0
192.082687 268.0
193.09375 604.0
194.12056 304.0
195.098999 528.0
203.073669 268.0
203.117462 340.0
204.086899 272.0
205.093567 972.0
205.130707 4144.0
206.133087 964.0
207.116074 672.0
208.129456 568.0
211.150055 616.0
212.14537 256.0
214.085968 264.0
217.101898 256.0
219.117371 796.0
221.112167 408.0
224.111923 356.0
225.610855 308.0
231.105026 392.0
232.114044 476.0
232.133133 632.0
233.091507 448.0
233.125671 1104.0
234.083206 412.0
234.13063 1056.0
235.142899 408.0
239.14592 264.0
241.098724 264.0
245.124252 684.0
246.124374 408.0
246.615082 288.0
247.092987 1240.0
247.143829 1300.0
247.616806 584.0
248.14064 1220.0
249.08757 264.0
249.144745 584.0
251.134491 260.0
254.131485 504.0
256.118286 256.0
256.144073 364.0
257.147125 400.0
257.605438 268.0
259.137054 552.0
260.103058 408.0
260.135925 2032.0
261.169647 4440.0
262.114899 324.0
262.163116 852.0
263.166107 1240.0
264.08078 336.0
264.16095 548.0
265.134369 408.0
265.194061 392.0
266.610657 400.0
267.201294 404.0
270.165009 332.0
274.167847 980.0
275.175323 548.0
276.133179 916.0
276.167725 1944.0
277.133301 500.0
277.169525 268.0
278.126801 364.0
279.653046 304.0
282.143707 308.0
287.171143 5232.0
287.636261 288.0
288.134491 592.0
288.178558 2120.0
288.650787 564.0
289.132294 608.0
289.187714 1620.0
290.152954 472.0
290.189026 1724.0
291.155579 716.0
291.191101 656.0
293.187469 280.0
294.645782 672.0
295.659485 580.0
296.16394 284.0
296.638916 272.0
299.145844 496.0
299.177277 256.0
300.651489 388.0
301.191376 384.0
302.14798 260.0
303.150055 560.0
304.112762 464.0
304.159576 968.0
304.192474 576.0
304.198395 624.0
305.206299 3528.0
306.207916 292.0
307.173004 476.0
307.659515 464.0
308.640015 256.0
309.145172 560.0
309.649658 5268.0
310.104858 404.0
310.153595 2772.0
310.653564 1528.0
311.64917 312.0
313.652863 396.0
314.161102 292.0
314.655975 420.0
315.167328 1948.0
316.170563 1868.0
317.143433 708.0
317.181091 4736.0
317.649933 536.0
318.171265 2320.0
318.213013 4788.0
318.656433 2624.0
319.1651 1252.0
319.217499 1312.0
319.658508 444.0
320.172516 328.0
323.156616 572.0
324.152252 372.0
324.655334 732.0
325.161438 512.0
327.66507 256.0
328.655396 312.0
329.180725 404.0
329.665955 440.0
330.179016 416.0
331.138916 468.0
331.174652 1760.0
332.141144 360.0
332.192902 7292.0
332.228394 3432.0
333.196564 1728.0
333.669952 492.0
334.1492 412.0
334.201752 476.0
342.188141 492.0
342.694946 268.0
344.159607 272.0
344.192291 1296.0
344.674255 256.0
345.149261 684.0
345.19986 1572.0
346.158905 1080.0
346.205292 1468.0
347.152588 1224.0
347.216522 672.0
348.161285 316.0
350.176849 332.0
351.177368 464.0
351.661072 452.0
352.168579 280.0
357.19397 304.0
358.207336 1340.0
359.168304 19468.0
359.675903 500.0
360.183563 5836.0
360.279358 464.0
361.195435 1284.0
362.180878 808.0
363.191986 496.0
364.681976 312.0
365.186493 284.0
368.181183 312.0
371.229584 548.0
371.694427 524.0
372.235107 3972.0
372.685211 284.0
373.18573 2840.0
373.220734 2056.0
374.190704 916.0
374.242462 320.0
374.689758 360.0
375.136139 592.0
375.19516 404.0
376.14679 288.0
377.18573 412.0
378.692291 344.0
379.208466 720.0
379.701569 356.0
380.183502 460.0
380.686249 724.0
381.182983 492.0
386.203308 396.0
386.235626 532.0
386.70282 616.0
387.232086 2516.0
387.682495 604.0
388.216034 3872.0
389.217957 1300.0
389.263336 5992.0
390.174438 340.0
390.265747 1500.0
391.190186 252.0
391.269073 416.0
391.717438 360.0
392.207245 464.0
393.206848 432.0
393.708221 592.0
394.716248 252.0
398.218567 288.0
399.208221 700.0
399.711182 500.0
400.218903 344.0
401.215088 11916.0
402.219666 3784.0
403.217468 528.0
404.223969 488.0
405.20575 296.0
405.730804 452.0
406.200287 380.0
406.718109 340.0
407.710968 652.0
408.168823 316.0
409.196625 364.0
412.225677 308.0
413.221222 292.0
413.72937 388.0
414.233429 2356.0
414.723389 660.0
415.230896 22552.0
415.728455 548.0
416.235016 5132.0
417.256012 1320.0
418.259216 340.0
419.193604 252.0
420.201141 400.0
420.709503 268.0
421.213959 628.0
421.728638 696.0
423.228241 432.0
423.713837 324.0
427.722656 276.0
428.225464 280.0
428.722748 824.0
429.248444 4532.0
430.255066 604.0
432.205688 320.0
435.233948 632.0
435.730957 312.0
436.234924 260.0
437.228271 396.0
441.20575 436.0
441.739929 488.0
442.233856 440.0
442.714844 424.0
442.747101 416.0
443.220306 280.0
443.261871 488.0
443.737 460.0
444.270844 2412.0
445.225403 328.0
445.272217 972.0
446.222443 356.0
448.735321 680.0
449.739441 412.0
450.194977 288.0
451.254059 296.0
455.74057 380.0
456.242676 364.0
456.746857 284.0
457.239777 1480.0
458.251953 708.0
460.230927 432.0
461.24765 364.0
462.730316 304.0
463.241364 512.0
463.744965 656.0
464.256714 692.0
464.761871 372.0
468.751373 252.0
469.223541 256.0
469.738342 332.0
470.240662 360.0
470.753479 276.0
471.245392 812.0
472.264038 4128.0
473.266571 1592.0
474.261169 296.0
475.263428 552.0
476.248169 364.0
476.755432 504.0
477.24588 376.0
479.244446 656.0
479.746979 352.0
484.251556 604.0
484.743439 268.0
485.26358 668.0
485.757233 516.0
486.266144 300.0
488.226227 1064.0
489.230286 688.0
490.228271 352.0
491.77179 660.0
492.253845 752.0
492.762268 692.0
493.230896 264.0
498.26889 276.0
498.758728 596.0
499.243195 252.0
499.774597 440.0
500.265137 364.0
501.23938 436.0
502.256683 480.0
503.240021 272.0
504.785492 288.0
505.273315 324.0
505.770966 456.0
506.268372 448.0
506.759796 604.0
512.286743 428.0
513.777649 396.0
518.782166 256.0
519.251282 472.0
520.253784 272.0
526.766052 264.0
527.774231 252.0
528.77948 292.0
530.2724 2612.0
531.271118 944.0
533.782104 640.0
534.784668 800.0
535.270935 508.0
535.780518 808.0
544.286621 1612.0
545.286255 784.0
548.80072 388.0
549.293884 500.0
549.782166 256.0
556.79425 352.0
557.293457 404.0
558.28302 424.0
558.340332 272.0
563.298523 432.0
564.30011 572.0
569.794678 276.0
570.301147 512.0
570.81665 256.0
571.29187 456.0
572.31073 316.0
573.275452 460.0
574.340515 1432.0
575.333191 424.0
576.350769 304.0
576.81189 364.0
577.32782 356.0
577.807068 344.0
578.30072 600.0
578.79187 252.0
584.309753 560.0
584.817078 556.0
585.315369 752.0
585.806702 364.0
585.847168 388.0
586.318359 432.0
591.284729 396.0
593.324463 292.0
598.312622 2296.0
598.817139 3968.0
599.313293 1772.0
599.819031 1048.0
600.315857 924.0
600.820801 252.0
601.323364 10280.0
602.328918 7252.0
603.33252 2740.0
604.344177 1544.0
605.338623 304.0
612.367432 1024.0
613.370544 592.0
613.824402 2632.0
614.324829 2932.0
614.828796 1708.0
615.327637 344.0
616.831848 328.0
617.28833 336.0
618.296326 1852.0
619.296814 864.0
620.303162 308.0
624.303223 292.0
629.022705 532.0
629.217896 308.0
629.333191 24292.0
629.654541 368.0
629.834229 18404.0
630.017944 272.0
630.191528 480.0
630.23114 356.0
630.337463 14172.0
630.471802 348.0
630.657654 300.0
630.835266 4000.0
631.073181 296.0
631.331299 1328.0
631.829163 1252.0
632.051086 452.0
632.196289 736.0
632.34375 137736.0
632.478455 280.0
632.544495 360.0
632.696167 268.0
632.790405 544.0
632.835938 592.0
633.167236 260.0
633.345215 40840.0
633.86731 400.0
634.22113 332.0
634.346497 7168.0
635.350525 1388.0
636.510193 340.0
636.681396 296.0
637.322449 264.0
637.47522 396.0
648.308716 380.0
654.315002 404.0
END IONS

BEGIN IONS
PEPMASS=601.263
TITLE=CCMSLIB00000478532
SPECTRUMID=CCMSLIB00000478532
COMPOUND_NAME=_130131
ADDUCT=[M+Na]1+
ION_MODE=positive
SMILES=CC(C)C1CCC(O)(CO)C2C(=O)OCC(C(=O)OCC3(O)CCC(C(C)C)C4C=C(C(=O)O)COC(=O)C43)=CC12
COLLISION_ENERGY=37.0
MS_MANUFACTURER=Bruker Daltonics
109.065674 256.0
117.069931 260.0
119.086418 416.0
122.107979 272.0
128.065399 392.0
129.07048 424.0
131.08696 2148.0
133.063583 356.0
135.081863 476.0
135.117233 536.0
141.072052 420.0
142.078629 668.0
143.087967 696.0
145.067017 684.0
145.102448 472.0
146.101791 256.0
147.04277 440.0
147.079895 1396.0
147.117081 432.0
148.088516 352.0
149.059998 544.0
149.09668 1068.0
151.07576 528.0
155.085693 252.0
156.093903 876.0
157.06459 752.0
157.102463 1060.0
158.10936 288.0
159.081375 1800.0
159.114731 1128.0
160.08522 392.0
161.062714 368.0
161.135559 500.0
171.118271 1916.0
172.123566 368.0
173.133377 776.0
175.076279 3344.0
175.11348 704.0
176.083359 524.0
177.092636 1508.0
181.101852 704.0
182.102951 260.0
183.117477 640.0
184.126526 472.0
185.094757 372.0
187.0737 256.0
189.088745 724.0
189.129791 1584.0
190.134109 492.0
191.075897 256.0
191.139587 364.0
192.152786 488.0
193.086426 368.0
199.11264 2936.0
200.116135 1216.0
201.127625 1048.0
202.133118 356.0
203.071091 5984.0
203.104813 1080.0
204.075317 1856.0
204.111725 384.0
205.120087 924.0
215.070663 256.0
217.122391 4208.0
218.129242 1032.0
219.055634 288.0
219.134232 680.0
221.081604 18364.0
221.116592 1280.0
221.183868 264.0
222.084122 2864.0
223.08223 596.0
227.106476 1524.0
228.113617 344.0
229.111023 252.0
231.107147 652.0
235.134216 2524.0
236.135498 256.0
241.120956 1356.0
245.118301 5532.0
246.083328 272.0
246.121994 1460.0
247.120636 372.0
249.11438 524.0
257.084412 3144.0
258.085999 780.0
259.086395 328.0
259.130219 3220.0
260.132812 760.0
261.092102 488.0
263.092865 560.0
263.129181 3804.0
264.126892 1164.0
267.128021 320.0
269.107727 316.0
271.062775 608.0
272.061249 292.0
273.086853 392.0
275.096069 8412.0
276.100952 1364.0
277.098846 1020.0
277.133301 580.0
278.125549 260.0
279.094208 460.0
280.091583 392.0
281.137421 2632.0
282.143433 452.0
283.148285 364.0
285.108521 804.0
286.62616 300.0
287.623169 360.0
289.077667 1572.0
291.069824 400.0
293.067535 428.0
293.107086 6436.0
294.108765 1252.0
295.109039 568.0
296.131256 676.0
296.648346 448.0
297.111267 380.0
300.110352 420.0
300.61499 392.0
301.07663 800.0
301.110443 424.0
303.121124 5632.0
304.12442 932.0
307.087158 1884.0
308.088226 468.0
309.118866 1684.0
309.619843 484.0
310.123596 588.0
310.621735 272.0
311.11557 2976.0
312.116089 1124.0
318.122742 2396.0
318.62674 1000.0
319.084656 3448.0
319.619781 408.0
320.088257 952.0
321.083496 312.0
321.131775 68920.0
322.134521 8900.0
323.137329 2208.0
324.145355 308.0
324.351868 252.0
325.097809 676.0
326.098328 484.0
329.128937 456.0
337.094452 4236.0
338.098541 1256.0
339.098969 344.0
341.080475 344.0
343.112122 640.0
355.106812 3192.0
356.11142 1168.0
373.113953 448.0
397.108337 336.0
398.11557 292.0
418.682983 252.0
427.682343 500.0
441.192078 552.0
449.182587 1084.0
449.692261 512.0
451.220337 356.0
454.201569 276.0
458.188995 2460.0
458.692169 648.0
459.195496 1216.0
459.690033 544.0
463.207581 452.0
464.210571 268.0
475.216522 548.0
476.21875 340.0
481.222687 280.0
489.198761 260.0
491.213165 404.0
493.22998 1008.0
494.224335 320.0
495.276337 848.0
496.271881 380.0
499.224792 476.0
507.205627 384.0
508.195557 408.0
511.233276 1232.0
519.20166 380.0
525.217468 732.0
526.214783 572.0
529.236816 308.0
537.215454 604.0
538.220093 456.0
539.262634 888.0
543.223816 836.0
551.19873 276.0
555.227539 980.0
556.223267 540.0
557.271057 1492.0
558.271545 944.0
559.21814 308.0
561.225403 572.0
561.272888 976.0
562.226501 308.0
563.283569 688.0
564.275208 412.0
565.213684 312.0
569.210022 620.0
573.237061 1656.0
574.239502 840.0
576.754517 548.0
577.222168 256.0
578.221619 276.0
581.200317 640.0
582.206604 532.0
583.190125 324.0
583.249207 1408.0
584.253235 556.0
585.245911 356.0
587.21936 472.0
588.218445 292.0
589.256897 588.0
591.250427 988.0
592.25531 528.0
597.137878 292.0
597.22229 400.0
597.61853 344.0
598.14856 468.0
598.254944 37296.0
598.755981 39476.0
598.878662 524.0
599.25708 21480.0
599.495789 500.0
599.757202 7848.0
600.25116 3812.0
600.530823 252.0
600.751648 1700.0
600.917236 284.0
601.134949 428.0
601.262451 186004.0
601.763855 484.0
602.07489 452.0
602.136536 516.0
602.265503 57752.0
602.625916 416.0
602.740051 420.0
603.12738 348.0
603.267151 12324.0
604.268738 2256.0
604.908813 728.0
605.234253 864.0
605.391418 292.0
606.223389 280.0
606.271179 312.0
609.232727 600.0
617.224487 3960.0
618.22583 1008.0
619.229431 564.0
619.298767 408.0
623.246399 736.0
624.258362 748.0
625.250366 268.0
635.2323 1012.0
636.237793 684.0
853.365845 468.0
871.382324 288.0
897.35968 260.0
898.360901 420.0
915.366211 964.0
916.377686 376.0
917.358093 256.0
END IONS

BEGIN IONS
PEPMASS=643.107
TITLE=CCMSLIB00000078281
SPECTRUMID=CCMSLIB00000078281
COMPOUND_NAME=Cefditoren pivoxil
ADDUCT=[M+Na]1+
ION_MODE=positive
SMILES=CON=C(C(=O)NC1C(=O)N2C(C(=O)OCOC(=O)C(C)(C)C)=C(C=Cc3scnc3C)CSC12)c1csc(N)n1
COLLISION_ENERGY=37.0
MS_MANUFACTURER=Bruker Daltonics
53.379967 152.0
61.170383 252.0
65.914894 224.0
66.502769 196.0
75.673836 184.0
76.695305 160.0
87.616104 176.0
88.591286 152.0
106.011444 148.0
107.452835 188.0
108.91642 188.0
109.717583 196.0
113.837517 176.0
116.273369 172.0
121.492119 148.0
123.994812 172.0
124.147781 184.0
127.007042 176.0
128.618118 196.0
129.01796 148.0
129.946503 208.0
130.280243 196.0
131.030991 204.0
133.165237 172.0
141.919678 168.0
142.998169 144.0
147.992615 488.0
150.039627 164.0
150.933228 144.0
152.593155 180.0
154.801514 148.0
155.071548 196.0
156.023041 356.0
158.297791 184.0
162.035858 244.0
163.048157 220.0
165.049271 208.0
167.057449 144.0
169.28746 140.0
174.046432 196.0
175.006149 148.0
175.108841 192.0
178.055115 224.0
179.047104 160.0
180.282272 208.0
183.20961 176.0
184.015991 224.0
184.175323 232.0
185.059616 412.0
186.054611 196.0
189.02005 184.0
190.014648 156.0
192.003403 168.0
195.942322 148.0
197.041931 172.0
199.998932 200.0
201.023071 144.0
201.042831 172.0
202.029144 156.0
203.023102 156.0
203.295441 228.0
203.616241 168.0
204.005508 204.0
204.025406 172.0
204.343933 184.0
206.99559 148.0
207.991119 180.0
209.000336 172.0
209.050934 168.0
209.229385 184.0
210.02356 208.0
212.016754 184.0
215.003479 176.0
217.305618 232.0
217.66153 188.0
218.70813 144.0
221.984543 180.0
223.024704 308.0
224.017487 144.0
224.512222 184.0
225.01355 204.0
227.007828 304.0
228.039032 176.0
229.009094 136.0
229.048996 648.0
230.055023 616.0
232.003525 1060.0
232.048691 116.0
233.005493 276.0
233.955765 168.0
235.012451 168.0
241.000717 164.0
241.03804 384.0
243.000839 184.0
246.013412 164.0
246.985229 148.0
247.034378 304.0
247.982788 176.0
248.98912 1520.0
249.424728 188.0
249.990341 268.0
250.041199 140.0
250.986954 208.0
252.020737 156.0
254.117554 164.0
258.038208 176.0
261.058929 164.0
263.009094 148.0
264.051453 140.0
265.093872 196.0
267.003387 160.0
267.060883 160.0
268.025452 196.0
268.100555 152.0
270.009674 148.0
271.007324 172.0
271.073608 168.0
272.021942 168.0
272.684967 164.0
273.036743 172.0
273.08606 156.0
275.065094 168.0
275.971619 316.0
276.032623 180.0
276.28244 140.0
277.023987 208.0
278.049591 164.0
278.091675 180.0
278.19458 144.0
279.091614 176.0
280.001038 164.0
280.107635 188.0
281.007019 200.0
282.4198 164.0
283.675476 160.0
283.997375 324.0
285.019104 288.0
285.101959 176.0
288.996033 152.0
289.030487 192.0
292.063416 156.0
292.985931 140.0
293.084717 180.0
297.07309 176.0
297.10202 156.0
299.002167 148.0
299.05542 168.0
299.089691 184.0
300.019836 132.0
300.098236 188.0
301.02359 124.0
302.014191 140.0
303.17746 160.0
304.013245 144.0
305.028839 160.0
305.083008 164.0
306.986572 140.0
308.083496 144.0
308.985474 148.0
311.069153 408.0
311.566193 236.0
312.002197 128.0
312.069061 348.0
312.562775 204.0
312.999573 176.0
313.03244 204.0
313.093201 112.0
313.120483 176.0
314.076996 200.0
319.075836 156.0
327.017181 308.0
329.089996 184.0
330.069183 148.0
332.025574 144.0
334.082153 168.0
337.101196 372.0
339.114197 132.0
339.966766 196.0
340.991394 160.0
344.089294 188.0
345.748962 156.0
345.81189 148.0
346.015472 164.0
359.108337 220.0
362.273529 140.0
365.063202 156.0
365.100281 156.0
370.004425 156.0
371.038818 168.0
373.019684 156.0
373.065033 540.0
374.066315 180.0
377.051331 176.0
381.101013 124.0
382.099976 152.0
382.551422 208.0
383.112946 908.0
384.115662 332.0
384.160828 152.0
385.084442 232.0
385.126373 292.0
385.269501 144.0
386.088959 140.0
397.082397 184.0
400.592133 192.0
403.071899 184.0
404.086945 108.0
406.002686 148.0
406.99408 196.0
421.053589 284.0
422.081146 164.0
426.677338 160.0
431.120697 152.0
434.051514 156.0
436.052429 164.0
439.009918 208.0
439.054138 160.0
440.473206 156.0
449.196014 156.0
453.025238 128.0
467.038513 232.0
469.002747 124.0
469.038055 168.0
481.02774 156.0
482.867218 172.0
483.035339 196.0
485.028229 144.0
485.075439 220.0
485.556305 208.0
488.525543 140.0
496.506989 156.0
504.070374 180.0
504.146362 148.0
505.097687 128.0
507.043427 280.0
508.059692 180.0
509.045471 152.0
509.559174 204.0
511.03006 288.0
512.031616 260.0
527.016785 144.0
527.674988 144.0
529.039368 328.0
529.977173 196.0
530.027527 160.0
531.02832 204.0
538.778564 160.0
570.099609 144.0
578.896301 160.0
580.124817 168.0
580.794128 140.0
582.781616 180.0
594.535034 188.0
595.078674 144.0
600.387451 152.0
611.154419 156.0
612.099487 228.0
613.09375 232.0
615.094543 108.0
616.85553 168.0
617.745605 140.0
618.324524 160.0
621.121094 784.0
621.184448 192.0
622.142456 484.0
623.118408 468.0
623.472351 160.0
624.111755 200.0
625.068604 160.0
631.059082 140.0
639.150391 124.0
640.992432 144.0
641.935059 144.0
642.518982 172.0
642.635803 108.0
642.90863 248.0
642.959106 256.0
643.106873 10716.0
643.239624 188.0
643.872925 188.0
644.108337 3100.0
644.243286 180.0
645.105286 1616.0
645.235962 116.0
646.118408 604.0
647.100159 232.0
647.425232 124.0
648.560425 124.0
1123.083252 160.0
1491.342773 176.0
1792.989868 188.0
END IONS

BEGIN IONS
PEPMASS=609.231
TITLE=CCMSLIB00000079447
SPECTRUMID=CCMSLIB00000079447
COMPOUND_NAME=MLS001097641-01!
ADDUCT=[M+Na]1+
ION_MODE=positive
SMILES=CC(=O)OC1=C2C(C)C(O)CC(O)(C(OC(=O)c3ccccc3)C3C4(OC(C)=O)COC4CC(O)C3(C)C1=O)C2(C)C
COLLISION_ENERGY=37.0
MS_MANUFACTURER=Bruker Daltonics
95.087677 364.0
97.049355 204.0
97.227859 148.0
98.197777 176.0
98.835846 112.0
100.06443 204.0
100.447052 92.0
100.566772 124.0
100.836395 176.0
100.936356 172.0
101.896416 200.0
102.441597 124.0
103.050858 156.0
104.05542 124.0
105.034332 2000.0
105.063866 408.0
105.111778 244.0
105.281204 120.0
105.334305 92.0
106.036781 296.0
106.267822 132.0
107.044785 156.0
107.085968 112.0
107.153946 60.0
107.213699 80.0
107.269348 68.0
108.097542 124.0
109.06662 296.0
109.101395 184.0
110.10363 188.0
110.973244 192.0
111.085266 172.0
112.008057 184.0
112.092331 144.0
113.129341 92.0
116.065239 188.0
116.344147 148.0
117.890633 160.0
118.607002 144.0
118.639519 112.0
118.695892 248.0
119.085281 232.0
119.752052 88.0
120.502449 192.0
120.775703 88.0
121.030289 156.0
121.038765 196.0
121.066986 340.0
121.104019 104.0
121.235466 100.0
121.603905 156.0
122.069641 152.0
122.103714 152.0
123.044464 336.0
123.081451 372.0
123.220192 184.0
123.684586 92.0
124.01239 148.0
124.123238 144.0
125.022896 152.0
126.993401 88.0
128.676605 108.0
129.06749 172.0
130.573227 192.0
131.087708 140.0
131.477661 80.0
132.085419 160.0
132.43103 180.0
133.068741 276.0
133.099503 196.0
134.071411 120.0
134.103683 140.0
134.417313 80.0
135.081558 416.0
135.110458 180.0
135.156723 236.0
135.453064 64.0
135.66394 152.0
137.052994 352.0
137.091293 136.0
138.071503 128.0
139.001511 140.0
139.071915 220.0
139.120529 192.0
141.074112 164.0
142.077118 128.0
143.086426 204.0
145.017654 164.0
145.063889 192.0
145.09877 228.0
145.834396 204.0
146.029144 220.0
146.983109 172.0
147.043442 200.0
147.079651 220.0
147.118271 136.0
147.274277 152.0
147.39119 28.0
147.582138 156.0
148.093735 184.0
149.063934 336.0
149.0961 152.0
149.897781 160.0
150.051331 128.0
150.771393 124.0
151.050125 164.0
151.072144 188.0
151.113388 140.0
151.441757 128.0
151.466248 60.0
151.640213 196.0
151.696579 88.0
152.116058 176.0
152.177429 156.0
152.251083 48.0
152.688538 64.0
153.069977 100.0
153.750351 144.0
153.929382 152.0
154.076721 484.0
154.872803 176.0
155.086624 344.0
155.656479 132.0
157.070374 208.0
157.101898 376.0
158.069397 188.0
158.10144 164.0
159.077988 364.0
159.115128 164.0
160.075058 120.0
160.233734 100.0
160.9879 196.0
161.025787 188.0
161.092758 232.0
161.12178 60.0
161.210205 188.0
162.093338 148.0
162.458435 116.0
163.047501 148.0
163.108505 188.0
163.449295 76.0
163.515457 44.0
164.078384 128.0
164.111526 128.0
165.090408 200.0
165.268555 148.0
165.291595 76.0
166.06752 208.0
167.088577 192.0
167.113342 176.0
167.141647 224.0
167.589661 156.0
168.544327 224.0
168.787308 200.0
169.101532 240.0
170.07486 208.0
170.105927 144.0
170.864822 168.0
170.942886 192.0
171.039169 80.0
171.083557 164.0
171.114441 180.0
171.471527 100.0
171.857468 152.0
172.121094 144.0
172.669876 100.0
172.996933 208.0
173.094803 264.0
173.125229 112.0
173.518265 212.0
174.10434 180.0
174.129791 160.0
174.345093 48.0
175.071152 352.0
175.111786 316.0
176.126114 196.0
176.287262 176.0
177.097778 188.0
177.618973 72.0
178.995636 144.0
179.014282 212.0
179.059555 180.0
179.110153 136.0
180.006256 152.0
180.110413 136.0
181.105057 156.0
182.108521 120.0
182.670288 196.0
183.081192 196.0
183.11731 352.0
183.184433 124.0
184.086197 260.0
184.106857 88.0
184.804245 76.0
185.095169 324.0
185.132095 188.0
185.180527 172.0
185.565323 148.0
186.059082 176.0
186.09993 208.0
186.526321 188.0
186.890732 168.0
187.005035 144.0
187.077667 340.0
187.111465 160.0
187.435303 104.0
187.874268 68.0
188.041702 196.0
189.091858 164.0
189.124588 200.0
189.235275 100.0
189.339325 140.0
189.591354 104.0
189.75856 236.0
190.123383 88.0
190.425369 84.0
190.708359 164.0
191.068588 132.0
191.101608 172.0
193.095383 212.0
193.610764 200.0
194.109344 148.0
194.431351 80.0
195.042374 236.0
195.11174 320.0
197.006897 152.0
197.096924 736.0
197.129837 116.0
197.333878 144.0
197.633148 48.0
198.103485 144.0
199.034607 148.0
199.079529 216.0
199.111908 244.0
199.141022 164.0
199.357635 32.0
199.860977 108.0
199.894745 128.0
200.125549 216.0
201.125732 172.0
201.16301 104.0
201.527328 184.0
202.132416 132.0
202.554245 92.0
202.701569 140.0
203.064438 52.0
203.110489 380.0
203.152374 248.0
204.081055 148.0
204.42807 64.0
204.704193 140.0
205.051743 180.0
205.114456 152.0
206.09903 68.0
206.885529 108.0
207.09787 356.0
207.14325 140.0
207.908783 40.0
208.101212 108.0
209.055405 108.0
209.130844 204.0
209.259766 172.0
209.297195 172.0
209.328873 164.0
210.104187 176.0
210.199402 140.0
210.892502 100.0
211.022583 104.0
211.111588 180.0
211.633072 88.0
212.093689 200.0
212.113983 160.0
212.148758 56.0
213.046265 168.0
213.084686 280.0
213.124283 116.0
213.266312 96.0
214.098724 100.0
214.131592 212.0
215.111832 164.0
215.136383 128.0
215.191849 232.0
215.256088 76.0
217.052734 196.0
217.076187 168.0
217.121124 260.0
218.012619 60.0
218.156647 128.0
219.363571 100.0
219.929901 192.0
220.122986 180.0
221.008545 196.0
221.087585 152.0
221.366714 192.0
222.107635 144.0
223.251068 84.0
224.110504 128.0
225.042557 164.0
225.132538 204.0
225.166733 164.0
227.108002 132.0
227.199722 116.0
228.160721 160.0
229.084595 180.0
229.11171 192.0
230.142792 164.0
230.254898 152.0
231.100128 188.0
231.158783 148.0
231.464508 200.0
233.017441 160.0
233.038712 144.0
233.160248 100.0
234.018051 180.0
234.133774 68.0
235.070892 108.0
236.417267 96.0
236.579483 80.0
237.017456 196.0
237.087936 136.0
237.128784 236.0
237.271835 80.0
238.143707 156.0
239.143845 204.0
239.299545 144.0
240.156219 188.0
241.039154 168.0
241.085419 152.0
241.126007 300.0
241.165848 152.0
241.249313 64.0
241.63588 100.0
242.063019 232.0
242.131149 128.0
242.208572 180.0
242.580414 188.0
243.098373 156.0
243.146591 340.0
243.179062 192.0
244.117264 192.0
245.04483 132.0
245.08844 152.0
245.156509 180.0
245.634018 108.0
246.045944 108.0
247.067871 96.0
247.112701 176.0
247.167984 172.0
248.10759 128.0
248.138763 148.0
248.149323 140.0
248.1586 192.0
249.055252 180.0
249.598923 168.0
250.073959 132.0
250.165237 180.0
251.11705 104.0
251.504898 144.0
252.313568 92.0
252.522263 124.0
252.867126 132.0
253.044388 148.0
253.120377 68.0
254.096588 140.0
254.137833 84.0
254.166397 68.0
255.030182 192.0
255.074692 132.0
255.133545 336.0
256.134277 152.0
256.15976 136.0
257.030121 156.0
257.11795 128.0
258.112976 172.0
258.922577 36.0
259.015472 172.0
259.14682 108.0
260.256561 168.0
263.102631 184.0
263.134918 124.0
264.790527 144.0
265.127441 128.0
266.045349 132.0
266.13446 172.0
266.860809 224.0
267.052673 148.0
267.091705 136.0
267.147003 184.0
268.146606 120.0
268.224854 64.0
268.466095 28.0
268.700958 72.0
269.046875 156.0
269.079529 132.0
269.143982 172.0
269.213409 92.0
270.812653 248.0
271.136993 284.0
271.238586 36.0
272.137482 124.0
272.636749 136.0
273.056122 156.0
273.09375 140.0
273.120056 180.0
273.146362 136.0
274.341705 108.0
274.55603 128.0
275.166473 108.0
276.395996 196.0
277.078033 196.0
277.311127 236.0
278.05954 120.0
279.06604 168.0
279.139191 180.0
280.115784 156.0
280.921021 76.0
281.094513 48.0
281.1586 200.0
281.912659 92.0
282.066376 148.0
282.129913 152.0
283.132172 308.0
283.307861 68.0
283.622864 40.0
283.981598 76.0
284.041992 164.0
284.10907 160.0
285.106293 216.0
285.136536 348.0
285.166779 132.0
285.576965 148.0
286.546448 140.0
287.166687 200.0
289.04483 84.0
289.099121 84.0
291.083923 148.0
291.138214 120.0
291.190857 148.0
291.38446 36.0
293.000458 68.0
293.099274 172.0
293.269653 76.0
293.801605 40.0
295.060425 80.0
295.128082 356.0
295.461914 52.0
295.745941 100.0
295.958191 60.0
296.132843 140.0
297.046661 192.0
297.109741 180.0
297.14621 180.0
297.216125 108.0
297.809998 176.0
298.088287 108.0
298.148743 208.0
299.157928 152.0
300.139801 116.0
300.174744 176.0
301.106049 140.0
302.077271 136.0
302.132629 188.0
303.039703 164.0
303.101807 156.0
303.154053 188.0
304.086945 140.0
304.159821 104.0
305.101196 152.0
306.120667 132.0
307.072052 136.0
307.878235 116.0
308.493164 64.0
308.965271 172.0
309.06839 188.0
309.134949 160.0
309.157867 240.0
310.088135 292.0
310.147949 140.0
310.394257 188.0
311.053833 216.0
311.088928 132.0
312.037445 88.0
312.153473 220.0
312.485992 112.0
313.091187 180.0
313.14743 208.0
314.305695 60.0
314.948212 64.0
315.050629 168.0
315.075378 148.0
315.101898 228.0
315.160156 140.0
316.026398 172.0
316.083038 144.0
317.056854 192.0
317.095825 196.0
317.159637 180.0
318.234528 72.0
318.301971 140.0
319.064301 132.0
319.087189 176.0
319.129852 128.0
321.106201 128.0
321.147125 260.0
322.40213 136.0
322.552246 144.0
323.049286 132.0
323.124786 152.0
323.163757 264.0
323.793762 156.0
324.155579 136.0
324.248779 36.0
324.815277 112.0
325.08075 180.0
325.113037 72.0
325.145935 172.0
326.787506 136.0
326.863068 124.0
327.100586 196.0
327.163116 132.0
327.240997 176.0
329.065308 180.0
329.090576 176.0
329.155579 156.0
329.878143 116.0
332.079651 120.0
332.108673 128.0
332.141296 136.0
332.652924 144.0
333.048737 116.0
333.550171 136.0
334.41217 148.0
334.885498 60.0
335.286255 152.0
336.281921 80.0
337.144867 348.0
338.03241 108.0
338.072662 176.0
338.142212 164.0
339.083374 400.0
339.116425 112.0
339.155884 1092.0
339.424347 52.0
340.02597 196.0
340.095703 156.0
340.159149 176.0
340.22522 52.0
340.257233 116.0
340.811829 68.0
341.116852 100.0
341.153595 116.0
341.388916 168.0
342.121094 64.0
342.150574 140.0
342.596161 148.0
343.089966 80.0
345.098389 112.0
346.17514 140.0
348.118256 160.0
349.133118 268.0
349.434052 120.0
350.145813 168.0
353.108215 180.0
353.946533 200.0
355.150391 440.0
355.851257 96.0
356.151672 156.0
356.185486 132.0
356.587494 232.0
357.177826 156.0
359.1138 112.0
361.077728 132.0
361.138855 128.0
361.776337 184.0
362.777832 96.0
363.995697 68.0
364.417297 52.0
364.702789 136.0
365.104889 148.0
365.75592 172.0
366.1633 68.0
367.150482 5212.0
367.276215 132.0
367.482208 208.0
367.646301 116.0
368.152954 1552.0
368.383179 40.0
368.753815 128.0
369.099457 212.0
369.165833 112.0
369.621887 84.0
369.847687 60.0
370.062073 64.0
370.165436 116.0
370.280334 76.0
370.425873 44.0
370.644257 148.0
370.893372 108.0
371.123383 152.0
371.157867 96.0
372.078705 176.0
372.174683 96.0
373.146729 136.0
373.300537 60.0
374.127747 112.0
374.162415 56.0
374.312561 108.0
375.017548 136.0
375.750214 132.0
377.128784 116.0
378.01828 172.0
378.115021 192.0
379.191681 132.0
379.381622 120.0
380.025391 104.0
380.673615 76.0
380.996002 144.0
382.154541 148.0
383.095886 136.0
383.153442 160.0
383.52533 128.0
384.111755 504.0
385.113617 160.0
385.151886 92.0
386.086487 144.0
386.159698 292.0
387.107849 200.0
388.036469 256.0
389.140656 164.0
389.166412 176.0
390.105347 140.0
391.139893 148.0
391.16745 164.0
391.931488 36.0
393.098633 156.0
393.217041 148.0
394.4375 124.0
395.196777 32.0
396.273712 48.0
397.150116 144.0
397.237061 112.0
398.475647 220.0
399.179352 676.0
399.266663 104.0
399.30246 44.0
400.030579 52.0
400.099457 152.0
400.173401 496.0
400.962616 112.0
401.131317 292.0
401.156555 128.0
402.143158 116.0
402.474487 40.0
403.157562 124.0
405.053986 168.0
405.130096 184.0
405.375916 192.0
406.138336 204.0
407.115936 140.0
407.211884 104.0
408.574524 216.0
409.117798 132.0
409.149139 128.0
409.210388 112.0
409.999908 144.0
410.94751 104.0
410.999939 100.0
412.494232 132.0
415.190735 52.0
416.156494 128.0
416.266113 160.0
416.725098 52.0
417.160004 688.0
417.196533 56.0
417.294098 176.0
418.167847 316.0
419.144501 200.0
419.394653 144.0
419.867584 72.0
420.140869 216.0
422.064514 116.0
422.334442 68.0
422.420319 56.0
422.694427 108.0
423.132385 168.0
424.140106 128.0
424.19342 152.0
425.165466 148.0
425.296783 108.0
425.567749 132.0
427.100586 148.0
427.17215 4328.0
427.26297 108.0
427.335052 252.0
427.466736 136.0
427.499634 104.0
427.647797 124.0
427.820679 104.0
428.17395 1272.0
428.253052 68.0
428.512573 80.0
428.916412 64.0
429.179443 396.0
429.275085 64.0
429.464813 44.0
429.573212 56.0
429.734619 52.0
430.042419 48.0
430.17038 144.0
430.447784 88.0
430.575012 72.0
430.822845 88.0
430.893066 192.0
431.169006 160.0
431.252594 88.0
431.430328 56.0
432.162354 136.0
432.196991 184.0
432.348572 76.0
433.222198 40.0
433.516357 176.0
441.178955 200.0
442.128418 192.0
443.137573 128.0
443.443481 136.0
444.210785 112.0
445.165192 148.0
447.042542 100.0
447.155853 164.0
448.124695 148.0
449.127991 124.0
451.429688 152.0
453.18631 68.0
453.410889 112.0
456.114502 104.0
458.344543 116.0
459.175873 788.0
460.150848 80.0
460.185028 356.0
461.144012 144.0
461.187531 344.0
461.238037 132.0
462.191284 160.0
462.641113 144.0
463.189209 92.0
463.699097 36.0
464.192078 160.0
467.022217 188.0
468.102417 196.0
468.856293 60.0
471.181366 132.0
472.016205 120.0
472.162079 176.0
472.195068 144.0
473.561157 140.0
475.551208 68.0
476.967194 68.0
477.184235 188.0
478.182617 116.0
478.83374 148.0
479.308563 40.0
482.433472 48.0
487.087189 96.0
487.197021 184.0
487.847412 44.0
488.199127 104.0
488.713776 148.0
488.832581 144.0
489.185211 2348.0
489.271332 164.0
489.300018 140.0
489.536926 64.0
490.187775 884.0
490.567902 104.0
490.660461 100.0
491.195007 352.0
491.246979 60.0
491.295502 56.0
492.182617 136.0
493.141235 176.0
493.446259 180.0
493.547943 192.0
494.16275 160.0
500.995239 44.0
502.622559 40.0
505.150421 284.0
505.187042 188.0
505.625519 128.0
507.202087 224.0
508.206604 112.0
511.770844 124.0
512.604126 20.0
513.217163 236.0
515.808472 68.0
516.807922 96.0
517.1745 68.0
519.671387 88.0
519.707703 56.0
520.411194 172.0
521.137939 184.0
521.212158 2868.0
521.292419 76.0
521.437866 80.0
521.569641 44.0
521.630981 96.0
521.737854 36.0
522.056091 60.0
522.219543 1044.0
522.283508 128.0
522.579224 96.0
522.658813 40.0
523.146118 120.0
523.216919 132.0
523.521423 44.0
523.767395 56.0
523.799255 52.0
524.157837 136.0
524.496399 112.0
524.742554 48.0
525.03894 76.0
525.071716 128.0
525.21228 84.0
525.40387 48.0
525.741516 44.0
526.458252 56.0
531.186951 192.0
531.24115 92.0
535.170532 132.0
539.57666 72.0
539.92804 92.0
540.760803 84.0
542.252136 68.0
543.221191 52.0
543.281494 56.0
546.701172 76.0
546.975769 92.0
547.161987 84.0
547.199219 132.0
547.786011 168.0
548.182007 124.0
548.219299 148.0
548.452332 52.0
548.587524 76.0
548.620117 60.0
548.988464 64.0
549.049133 60.0
549.128357 144.0
549.208374 8924.0
549.322449 112.0
549.397461 52.0
549.557556 224.0
549.589355 64.0
549.790833 44.0
549.893555 68.0
549.963562 92.0
550.213623 2716.0
550.379028 28.0
550.505127 68.0
550.731506 76.0
550.827332 40.0
550.869385 36.0
550.9505 88.0
551.216003 1112.0
551.603027 56.0
552.075256 164.0
552.224304 152.0
552.379272 100.0
552.566406 52.0
553.001587 48.0
553.039001 40.0
553.147217 144.0
554.10199 60.0
554.45813 84.0
555.264465 112.0
555.555298 48.0
556.569031 64.0
557.846191 52.0
559.187439 68.0
560.063171 36.0
561.189453 192.0
562.722839 68.0
563.426514 48.0
564.073914 84.0
565.180603 176.0
565.284668 76.0
567.221741 160.0
567.254883 68.0
568.976929 68.0
574.664246 116.0
580.240845 140.0
581.156921 168.0
583.183411 84.0
600.46344 56.0
601.209839 64.0
608.341125 152.0
609.038391 148.0
609.227722 2572.0
609.331055 180.0
609.416626 148.0
609.662354 96.0
609.736023 120.0
610.232178 1124.0
611.2276 240.0
611.678833 64.0
612.229492 144.0
612.831238 72.0
613.033264 92.0
613.23938 116.0
613.319092 156.0
617.837402 64.0
621.652527 104.0
625.195862 140.0
626.201355 148.0
638.674133 84.0
642.855713 120.0
646.382812 56.0
657.389404 88.0
667.995056 96.0
689.14209 68.0
698.978638 156.0
699.09436 80.0
716.285645 116.0
723.296631 100.0
748.133972 64.0
762.129456 128.0
772.875854 124.0
791.674011 48.0
807.510742 116.0
810.85675 72.0
818.742188 72.0
833.454956 72.0
849.510742 136.0
854.029846 112.0
871.573853 84.0
881.38446 56.0
896.55188 148.0
921.496155 176.0
934.099609 96.0
942.280701 164.0
951.835571 60.0
954.121155 148.0
966.68512 100.0
1026.493042 80.0
1032.610962 48.0
1064.602661 60.0
1077.381836 252.0
1111.089233 172.0
1114.116455 112.0
1145.309082 176.0
1192.79895 148.0
1193.995239 40.0
1210.716919 92.0
1227.192261 140.0
1228.070923 100.0
1233.146729 40.0
1307.688599 152.0
1312.046631 204.0
1324.953735 84.0
1340.283936 188.0
1352.362671 212.0
1371.997437 152.0
1372.845337 152.0
1390.281738 124.0
1401.420654 176.0
1428.326294 104.0
1445.928711 60.0
1483.748413 84.0
1486.870239 176.0
1496.671265 64.0
END IONS

BEGIN IONS
PEPMASS=643.236
TITLE=CCMSLIB00000079455
SPECTRUMID=CCMSLIB00000079455
COMPOUND_NAME=MLS000728660-01!
ADDUCT=[M+Na]1+
ION_MODE=positive
SMILES=C=CC1C(OC2OC(CO)C(O)C(O)C2O)OC=C(C(=O)OC)C1CC1CC(=O)CC(CC(=O)CCc2ccc(O)cc2)O1
COLLISION_ENERGY=37.0
MS_MANUFACTURER=Bruker Daltonics
97.028931 356.0
98.026184 136.0
102.197914 172.0
107.047432 392.0
110.978218 160.0
114.09874 108.0
114.292282 168.0
114.392311 88.0
117.661583 180.0
119.088593 192.0
122.031212 168.0
124.081009 76.0
124.455963 148.0
124.982742 172.0
127.035912 112.0
127.43103 280.0
129.275482 224.0
132.268356 140.0
134.620346 28.0
135.03627 148.0
136.239334 200.0
137.016876 88.0
137.613403 120.0
139.015472 144.0
139.04129 104.0
140.957748 108.0
143.898712 220.0
144.757095 236.0
145.05658 60.0
149.053299 160.0
149.970764 176.0
150.056076 44.0
151.045105 196.0
154.179932 152.0
155.003967 204.0
155.882385 132.0
156.967697 112.0
157.202179 52.0
157.679153 172.0
158.184402 116.0
159.692398 144.0
160.130325 212.0
160.195816 148.0
165.052475 320.0
165.099594 392.0
169.012192 92.0
170.622818 188.0
171.264023 180.0
172.690643 168.0
175.042038 128.0
175.081543 168.0
176.517105 92.0
177.046341 180.0
178.059418 144.0
178.891647 136.0
178.971527 168.0
179.067383 128.0
179.248535 116.0
181.62793 164.0
183.003845 180.0
184.298492 148.0
185.391678 160.0
186.068665 184.0
187.070206 144.0
188.040543 124.0
188.373657 96.0
188.567657 56.0
191.098694 132.0
192.393997 176.0
192.780685 72.0
193.023026 192.0
193.082016 124.0
193.738007 224.0
193.934738 128.0
194.017197 172.0
196.267136 124.0
198.562988 48.0
198.93898 100.0
199.073746 132.0
200.074707 132.0
201.030197 148.0
201.611923 128.0
203.004715 144.0
203.57225 56.0
205.450775 56.0
205.684769 96.0
206.073151 116.0
206.747971 136.0
209.052353 200.0
209.084 140.0
210.912567 76.0
211.019516 188.0
211.048431 76.0
212.035538 120.0
213.027863 116.0
213.083679 300.0
214.086548 140.0
214.544006 76.0
215.066147 144.0
217.105331 160.0
218.082977 168.0
219.066132 308.0
219.106995 48.0
219.151199 212.0
220.058884 196.0
221.079376 168.0
222.644653 92.0
223.055527 156.0
223.63765 68.0
224.012817 80.0
225.041702 172.0
225.095459 156.0
225.842575 128.0
226.054993 216.0
226.201645 44.0
226.737778 148.0
228.085388 128.0
229.069901 172.0
229.560608 148.0
229.964859 152.0
231.038483 312.0
232.895737 132.0
233.193481 132.0
233.378922 160.0
233.893051 128.0
234.996216 236.0
236.092804 108.0
242.933731 192.0
246.826828 140.0
247.052994 372.0
248.05722 144.0
249.073715 212.0
249.582993 64.0
250.042267 116.0
251.022003 100.0
253.034683 156.0
255.080963 368.0
256.105804 132.0
257.374634 76.0
258.082611 380.0
258.563812 80.0
258.587128 376.0
258.643799 64.0
261.07251 196.0
263.087463 132.0
264.078278 160.0
265.017059 148.0
265.558411 124.0
266.038635 48.0
266.080841 116.0
268.531097 252.0
269.116913 140.0
271.067139 188.0
271.091553 136.0
272.186493 40.0
272.56424 28.0
275.873199 116.0
276.915497 148.0
276.941986 92.0
279.049194 160.0
279.122345 48.0
280.127411 188.0
280.807373 88.0
281.047577 228.0
281.311218 116.0
281.795471 200.0
282.651428 128.0
283.085327 172.0
284.094666 192.0
285.109436 180.0
286.081451 156.0
287.08551 132.0
289.031342 108.0
289.109039 152.0
290.111603 124.0
291.08194 204.0
294.412323 144.0
295.044464 76.0
297.058044 188.0
297.108063 440.0
297.665527 128.0
298.119751 196.0
298.985565 80.0
299.062286 152.0
299.111542 152.0
299.164551 224.0
300.598328 220.0
303.081024 124.0
305.066193 192.0
307.329926 48.0
308.174866 92.0
308.832092 132.0
309.094452 172.0
310.011902 120.0
310.120544 180.0
310.281799 184.0
310.495697 156.0
310.635986 228.0
313.075195 108.0
314.09375 140.0
315.080566 168.0
315.767914 144.0
316.008453 144.0
316.921936 160.0
317.102783 200.0
317.37915 160.0
321.045288 232.0
321.594727 176.0
323.070465 156.0
324.069336 164.0
325.031189 168.0
325.105591 172.0
326.021332 156.0
327.09671 228.0
328.036896 48.0
328.635559 208.0
329.048553 204.0
329.971863 68.0
330.044189 96.0
330.102051 96.0
330.593994 80.0
330.778595 56.0
331.108063 156.0
332.09024 92.0
335.070984 196.0
337.351868 172.0
339.086823 204.0
339.996338 180.0
340.716003 104.0
341.094513 132.0
341.123901 168.0
341.811676 92.0
342.993835 168.0
344.613922 184.0
347.616821 232.0
350.055359 124.0
350.263916 124.0
352.577118 68.0
353.119232 180.0
355.107971 124.0
356.40683 96.0
356.560913 124.0
357.08725 128.0
359.077484 160.0
361.107697 184.0
361.614655 176.0
363.353943 48.0
364.090332 160.0
371.495056 144.0
371.886444 124.0
373.091797 156.0
373.43866 80.0
374.585693 164.0
375.364197 104.0
377.132324 180.0
377.391327 120.0
379.112183 680.0
380.125916 272.0
381.120483 132.0
381.477539 60.0
381.983063 96.0
382.029755 148.0
382.28653 48.0
382.566254 92.0
382.617371 84.0
382.82373 64.0
383.072998 148.0
383.150909 188.0
383.501617 80.0
383.801788 164.0
385.499786 116.0
388.848114 92.0
389.166077 168.0
389.413483 180.0
395.121277 108.0
395.148987 280.0
397.129639 200.0
398.153564 188.0
398.217133 32.0
399.104401 156.0
399.508942 128.0
401.815582 184.0
403.149231 120.0
405.101715 64.0
405.237915 168.0
406.067688 88.0
406.155945 92.0
407.006714 216.0
408.634521 184.0
408.863892 64.0
408.948395 68.0
409.089294 104.0
409.636932 88.0
409.955231 56.0
410.455078 52.0
410.671753 104.0
410.779175 88.0
410.879822 144.0
410.935059 52.0
410.999603 196.0
411.052063 136.0
411.141052 8828.0
411.274017 96.0
411.349243 132.0
411.361084 84.0
411.454895 104.0
411.500092 32.0
411.532379 92.0
411.580841 28.0
411.633331 68.0
411.677734 60.0
411.78421 112.0
411.964508 104.0
412.015167 164.0
412.057434 92.0
412.146912 2812.0
412.244141 76.0
412.283722 52.0
412.384735 84.0
412.426453 76.0
412.473663 68.0
412.51004 52.0
412.79306 68.0
413.059998 260.0
413.141998 940.0
413.282501 64.0
413.375549 44.0
413.407928 72.0
413.531006 80.0
413.706635 40.0
414.003021 56.0
414.092102 164.0
414.152863 128.0
414.278412 140.0
414.465424 52.0
414.66214 132.0
414.752533 120.0
414.938995 72.0
415.113342 92.0
415.397247 44.0
415.478394 64.0
415.579803 68.0
415.79892 68.0
416.014069 64.0
416.834473 100.0
418.685394 172.0
422.50589 80.0
423.660339 48.0
426.425934 168.0
426.964478 100.0
427.108765 160.0
427.179321 156.0
427.66391 96.0
428.11676 128.0
429.138672 152.0
429.641815 124.0
429.848114 48.0
431.851746 80.0
434.851379 56.0
435.166473 128.0
435.182892 116.0
436.675293 28.0
437.424225 112.0
441.203674 52.0
442.969635 72.0
443.153961 128.0
444.147491 140.0
445.106384 344.0
446.108459 112.0
449.157013 920.0
449.477783 112.0
449.980042 144.0
450.157074 240.0
450.440338 60.0
450.744537 68.0
451.157349 264.0
451.843811 36.0
452.163849 172.0
452.372803 148.0
453.152039 156.0
453.181702 144.0
454.186401 116.0
463.128876 172.0
463.178253 148.0
463.313049 68.0
463.548706 76.0
464.144531 68.0
464.175934 168.0
465.135559 112.0
465.200043 168.0
467.882446 120.0
469.139191 160.0
470.39566 56.0
470.931091 64.0
473.430817 100.0
477.092834 88.0
478.179474 184.0
478.665588 272.0
479.154205 284.0
479.216644 48.0
480.446106 72.0
480.53772 36.0
480.860626 108.0
480.939178 92.0
481.180115 3512.0
481.36264 68.0
481.454346 48.0
481.934845 76.0
482.044098 80.0
482.18689 1104.0
482.389374 64.0
482.664795 56.0
482.857208 40.0
483.119659 136.0
483.191956 360.0
484.800964 64.0
486.177948 60.0
487.064819 76.0
491.29068 72.0
493.375092 120.0
495.698761 48.0
497.153076 200.0
506.077209 32.0
513.225159 156.0
515.179932 124.0
516.015991 112.0
536.898071 100.0
541.139954 152.0
555.179626 160.0
556.12262 108.0
559.193298 164.0
560.175781 88.0
562.458008 44.0
566.2547 116.0
570.881775 120.0
579.052002 152.0
581.636292 84.0
586.296753 160.0
587.222412 72.0
589.592896 68.0
590.405029 100.0
593.989136 136.0
596.125366 84.0
598.538025 140.0
612.229736 48.0
616.912109 104.0
618.717773 92.0
618.910828 40.0
619.198547 120.0
620.184021 132.0
621.206543 168.0
629.202637 140.0
633.763916 72.0
634.265076 148.0
634.94696 80.0
635.242859 56.0
635.383362 72.0
635.443542 72.0
638.608215 52.0
641.291809 36.0
641.367371 64.0
641.478271 124.0
642.522156 108.0
643.052002 76.0
643.107544 80.0
643.152954 84.0
643.234009 2384.0
643.319519 148.0
643.395264 128.0
643.49762 88.0
643.587097 40.0
643.735718 148.0
643.895142 48.0
644.082031 44.0
644.232849 1180.0
644.319458 72.0
644.789368 72.0
644.910645 44.0
645.11792 36.0
645.242615 216.0
645.825806 64.0
645.949951 44.0
646.250305 100.0
646.792236 88.0
647.08075 60.0
647.126343 116.0
647.259277 80.0
647.977173 52.0
648.245728 100.0
648.7323 136.0
651.487854 68.0
659.171021 104.0
664.36261 84.0
677.208008 124.0
688.175293 96.0
722.252686 88.0
731.38501 56.0
745.745422 80.0
751.446838 128.0
779.012451 52.0
873.836731 128.0
903.746582 104.0
923.38739 20.0
977.413086 40.0
1010.859314 44.0
1119.542969 216.0
1245.213745 20.0
1271.970337 204.0
1366.053467 60.0
1389.197266 140.0
END IONS

BEGIN IONS
PEPMASS=636.363
TITLE=CCMSLIB00000086083
SPECTRUMID=CCMSLIB00000086083
COMPOUND_NAME=MLS001401425-01!Indinavir Sulfate157810-81-6
ADDUCT=[M+Na]1+
ION_MODE=positive
SMILES=CC(C)(C)NC(=O)C1CN(Cc2cccnc2)CCN1CC(O)CC(Cc1ccccc1)C(=O)NC1c2ccccc2CC1O
COLLISION_ENERGY=37.0
MS_MANUFACTURER=Bruker Daltonics
133.078094 96.0
147.979263 144.0
165.729706 52.0
175.110886 180.0
175.938843 60.0
188.109116 128.0
189.093094 96.0
196.990265 124.0
206.124832 224.0
213.798584 112.0
214.086456 180.0
238.727142 84.0
240.75795 176.0
244.123383 188.0
250.788269 128.0
252.096771 172.0
252.133255 148.0
254.232864 172.0
256.095154 188.0
257.844238 116.0
266.123047 288.0
272.137207 164.0
272.528046 48.0
274.473297 148.0
275.192596 168.0
277.946411 120.0
278.27832 148.0
281.214325 92.0
282.199768 84.0
284.115448 112.0
286.111664 120.0
291.119141 176.0
294.156128 76.0
297.173248 128.0
299.180328 300.0
302.114899 196.0
303.118927 172.0
303.261017 152.0
304.141998 164.0
310.141327 36.0
312.575073 48.0
313.187622 76.0
314.019409 196.0
314.20285 184.0
322.762573 156.0
324.147827 148.0
326.143219 140.0
327.607727 164.0
328.129028 324.0
328.689331 76.0
329.151337 152.0
335.861664 236.0
338.877533 96.0
342.142487 172.0
344.107483 100.0
344.905426 156.0
346.13974 496.0
346.226227 92.0
346.630005 160.0
347.130432 348.0
347.156403 272.0
348.153076 152.0
350.841034 140.0
356.906219 148.0
357.195801 112.0
357.368866 132.0
360.160217 132.0
361.160095 156.0
362.155548 120.0
362.197205 200.0
364.203705 136.0
366.985504 144.0
367.695038 132.0
371.172302 176.0
386.089386 144.0
386.18457 156.0
388.886658 96.0
390.190796 168.0
391.894958 124.0
393.231201 112.0
394.203247 172.0
395.235291 128.0
397.184387 88.0
397.581146 128.0
400.841949 124.0
402.074188 220.0
407.078186 76.0
412.210114 132.0
412.24649 108.0
416.459839 108.0
421.233643 136.0
427.206207 108.0
431.21405 120.0
433.195984 72.0
439.786591 100.0
440.224945 192.0
441.064697 60.0
443.831909 100.0
451.191437 140.0
453.252594 116.0
461.197998 48.0
463.564667 128.0
464.190491 124.0
465.310333 144.0
468.225677 132.0
469.23111 120.0
470.221771 204.0
471.819977 88.0
472.252411 180.0
474.391418 108.0
476.096558 108.0
477.743866 172.0
481.959747 76.0
486.280853 188.0
486.532135 96.0
487.264008 940.0
487.317963 180.0
487.511597 32.0
488.021484 140.0
488.266388 444.0
489.262787 188.0
490.266388 84.0
490.297241 164.0
490.59256 84.0
495.719482 100.0
503.226929 260.0
504.292847 124.0
505.310394 72.0
510.72934 92.0
513.260254 128.0
514.478394 164.0
515.639282 56.0
515.684448 104.0
521.231323 92.0
521.894897 180.0
522.25415 108.0
524.681213 60.0
525.433716 132.0
526.246094 124.0
530.473206 32.0
533.240967 120.0
539.449646 124.0
543.724731 132.0
544.263184 128.0
545.22937 124.0
546.349976 164.0
547.676636 136.0
551.226868 132.0
558.2771 120.0
560.286926 108.0
561.276672 120.0
562.276123 216.0
563.252258 84.0
563.29657 196.0
564.336243 180.0
564.742981 224.0
569.78186 200.0
577.628418 96.0
577.67627 72.0
580.297913 196.0
580.334229 96.0
596.356445 144.0
598.837769 168.0
600.353394 132.0
601.324646 48.0
602.632935 64.0
603.102051 76.0
611.459473 108.0
611.528381 28.0
614.356689 112.0
616.430359 88.0
616.618164 108.0
617.1026 156.0
618.274902 120.0
618.336609 1508.0
618.730286 120.0
619.0224 104.0
619.071899 252.0
619.342896 996.0
620.350769 228.0
622.463684 88.0
623.318054 72.0
625.775146 92.0
626.347839 72.0
628.431641 76.0
629.879333 64.0
630.254028 96.0
632.544495 120.0
633.536011 72.0
634.402954 148.0
635.240417 108.0
635.506287 80.0
635.606628 244.0
635.656799 88.0
635.767212 68.0
636.08844 64.0
636.148682 120.0
636.352234 6232.0
636.495056 144.0
636.570374 40.0
636.635681 100.0
636.736084 120.0
636.846619 96.0
636.937012 40.0
637.017395 56.0
637.353333 3148.0
637.459534 120.0
637.49469 72.0
637.710754 52.0
637.816345 48.0
637.876648 92.0
638.052612 80.0
638.092834 72.0
638.355164 844.0
639.194336 64.0
639.239624 92.0
639.348328 300.0
639.581848 52.0
640.276611 56.0
640.629211 40.0
640.719849 108.0
641.248962 36.0
643.276611 92.0
653.116943 116.0
664.724182 124.0
668.218079 104.0
683.658325 52.0
720.186279 64.0
885.182495 172.0
914.074158 92.0
921.502441 152.0
959.742249 80.0
1009.613586 88.0
1010.809143 112.0
1095.401001 48.0
1097.681396 72.0
1100.66394 108.0
1229.687378 124.0
1384.369873 88.0
1475.720459 60.0
1480.372559 72.0
1494.373047 48.0
END IONS

BEGIN IONS
PEPMASS=607.309
TITLE=CCMSLIB00005464824
SPECTRUMID=CCMSLIB00005464824
COMPOUND_NAME="(2S,3S,4S,5R,6R)-6-(((3R,5R,7R,8R,9S,10S,12S,13R,14S,17R)-17-((R)-4-carboxybutan-2-yl)-7,12-dihydroxy-10,13-dimethylhexadecahydro-1H-cyclopenta[a]phenanthren-3-yl)oxy)-3,4,5-trihydroxytetrahydro-2H-pyran-2-carboxylic acid"
ADDUCT=[M+Na]1+
ION_MODE=positive
SMILES=CC(CCC(=O)O)C1CCC2C3C(O)CC4CC(OC5OC(C(=O)O)C(O)C(O)C5O)CCC4(C)C3CC(O)C12C
COLLISION_ENERGY=37.0
MS_MANUFACTURER=Bruker Daltonics
95.013199 65.0
95.085915 65.0
101.058952 91.0
107.085449 83.0
116.957123 68.0
119.08564 99.0
131.087906 75.0
135.11705 187.0
135.473877 71.0
136.947159 65.0
139.086334 69.0
141.065491 69.0
143.080963 130.0
144.088013 96.0
145.102188 84.0
146.11174 104.0
147.118652 232.0
148.095276 69.0
148.116302 118.0
149.130508 70.0
151.051407 66.0
153.129868 68.0
157.103775 200.0
159.031296 107.0
159.115692 132.0
161.127792 77.0
163.006653 182.0
171.113556 91.0
181.011887 131.0
181.13063 69.0
185.137436 72.0
188.107819 70.0
189.164795 108.0
193.118164 107.0
193.166763 73.0
196.1297 68.0
199.020233 1035.0
199.148987 241.0
200.022736 112.0
200.15274 157.0
201.158005 81.0
202.114334 77.0
203.141693 98.0
204.995728 65.0
209.127289 93.0
211.144257 189.0
212.152985 92.0
213.165771 481.0
214.074127 80.0
215.141739 74.0
215.175552 129.0
217.031708 694.0
217.095749 79.0
217.153931 122.0
218.03241 74.0
221.15712 78.0
223.146835 74.0
225.164612 177.0
227.127319 111.0
227.141815 166.0
227.178909 354.0
228.172989 77.0
231.174179 133.0
239.174377 116.0
240.175064 67.0
241.190247 127.0
243.638428 70.0
245.153809 419.0
246.161179 209.0
247.165726 165.0
248.172165 102.0
254.199738 180.0
255.207275 176.0
257.189026 87.0
259.177185 148.0
260.171509 151.0
261.187408 136.0
262.186371 138.0
273.187317 273.0
274.190826 65.0
306.987885 65.0
309.25235 99.0
310.243195 80.0
312.139954 87.0
313.217712 76.0
314.210602 123.0
319.24942 76.0
320.245148 192.0
321.143097 114.0
325.246002 77.0
337.248779 514.0
338.252258 81.0
339.263702 152.0
353.238129 140.0
354.248627 75.0
355.152924 66.0
355.204193 147.0
355.261322 6537.0
356.225677 130.0
356.264648 2266.0
357.133636 68.0
357.265533 526.0
358.265137 129.0
365.942902 73.0
371.254822 87.0
373.272858 628.0
374.275696 187.0
375.281158 146.0
399.285828 168.0
413.262665 1015.0
414.26178 129.0
419.762115 83.0
420.25589 71.0
420.766052 65.0
427.237335 81.0
428.243835 178.0
429.257385 1911.0
430.26123 834.0
431.275116 66760.0
431.40976 158.0
431.487488 135.0
431.565613 75.0
432.279022 17407.0
433.28363 2966.0
434.230804 79.0
434.284027 243.0
445.198608 81.0
447.240692 1604.0
448.237061 291.0
449.286743 3485.0
450.288513 670.0
450.506592 65.0
451.244354 126.0
451.289001 117.0
459.213409 104.0
463.223663 105.0
465.254547 2458.0
466.254456 989.0
467.25885 163.0
467.295227 91.0
469.248657 133.0
471.246613 131.0
472.297394 92.0
473.290497 564.0
474.280182 318.0
483.259277 426.0
484.270813 265.0
485.229065 87.0
485.257843 82.0
489.221954 65.0
489.260345 166.0
499.258118 68.0
503.232056 101.0
507.249512 101.0
509.284576 82.0
515.294434 94.0
563.241882 65.0
563.312561 76.0
564.351318 66.0
588.280518 74.0
589.294861 108.0
605.264648 1098.0
606.265869 508.0
607.091431 71.0
607.152344 91.0
607.308533 10425.0
608.312134 3927.0
609.314636 792.0
610.320984 177.0
623.273865 1252.0
624.283691 368.0
625.272705 157.0
626.306885 70.0
627.267578 65.0
END IONS

BEGIN IONS
PEPMASS=602.243
TITLE=CCMSLIB00005464884
SPECTRUMID=CCMSLIB00005464884
COMPOUND_NAME="2-((4R)-4-((3R,5R,9S,10S,12S,13R,14S,17R)-12-hydroxy-10,13-dimethyl-3-(sulfooxy)hexadecahydro-1H-cyclopenta[a]phenanthren-17-yl)pentanamido)ethane-1-sulfonic acid"
ADDUCT=[M+Na]1+
ION_MODE=positive
SMILES=CC(CCC(=O)NCCS(=O)(=O)O)C1CCC2C3CCC4CC(OS(=O)(=O)O)CCC4(C)C3CC(O)C12C
COLLISION_ENERGY=37.0
MS_MANUFACTURER=Bruker Daltonics
95.078018 73.0
119.080055 66.0
121.100471 66.0
125.093971 82.0
127.026512 73.0
137.092682 67.0
147.118408 66.0
148.002792 17369.0
149.006851 755.0
149.131134 69.0
149.998489 668.0
161.132111 67.0
166.015884 106.0
175.157181 76.0
189.028168 76.0
201.164688 105.0
203.147583 72.0
210.063599 75.0
215.16951 102.0
225.162186 74.0
231.174072 88.0
243.20636 68.0
253.146225 71.0
257.197113 107.0
289.119965 66.0
297.225098 92.0
300.122284 69.0
321.258179 265.0
336.115509 72.0
339.272156 253.0
340.28244 104.0
341.289062 68.0
360.26355 178.0
361.24762 1348.0
362.252899 350.0
364.157104 116.0
378.262177 97.0
378.289795 180.0
379.269867 152.0
380.266388 78.0
390.173859 78.0
402.271332 89.0
464.280243 688.0
465.281403 413.0
466.292847 240.0
467.280975 152.0
468.259674 184.0
471.2323 69.0
486.181366 299.0
486.263824 23232.0
487.269562 6062.0
488.265625 2068.0
489.264648 426.0
502.189362 86.0
502.232056 492.0
503.24115 149.0
504.273499 4562.0
505.276459 1342.0
506.27652 243.0
507.27652 101.0
520.241211 138.0
522.281128 436.0
523.295837 126.0
640.191956 80.0
END IONS

BEGIN IONS
PEPMASS=643.382
TITLE=CCMSLIB00005464960
SPECTRUMID=CCMSLIB00005464960
COMPOUND_NAME="(3R,5R,7R,8R,9S,10S,12S,13R,14S,17R)-17-((R)-7-acetoxy-6-(acetoxymethyl)heptan-2-yl)-12-hydroxy-10,13-dimethylhexadecahydro-1H-cyclopenta[a]phenanthrene-3,7-diyl diacetate"
ADDUCT=[M+Na]1+
ION_MODE=positive
SMILES=CC(=O)OCC(CCCC(C)C1CCC2C3C(OC(C)=O)CC4CC(OC(C)=O)CCC4(C)C3CC(O)C12C)COC(C)=O
COLLISION_ENERGY=37.0
MS_MANUFACTURER=Bruker Daltonics
95.085655 166.0
98.108643 79.0
106.072495 190.0
107.088234 264.0
109.102219 373.0
110.104149 169.0
111.111473 121.0
119.085991 240.0
121.101845 256.0
122.105537 82.0
123.116867 101.0
124.118599 76.0
129.070938 170.0
131.085266 314.0
133.098236 328.0
135.113464 254.0
136.11972 163.0
137.132004 60.0
141.068954 70.0
143.084747 299.0
144.087982 91.0
145.099365 875.0
146.10408 208.0
147.113449 335.0
148.122345 60.0
149.130768 340.0
150.13826 60.0
155.085129 165.0
157.102295 351.0
159.118622 656.0
159.147217 63.0
160.095123 131.0
160.121094 386.0
161.12883 469.0
162.139893 59.0
163.147705 241.0
165.153229 78.0
167.107864 69.0
169.102081 204.0
171.114914 590.0
173.129868 282.0
174.136444 264.0
175.149246 166.0
177.084335 87.0
177.164261 71.0
183.115616 142.0
184.119705 76.0
185.129761 346.0
186.148392 61.0
187.143753 216.0
189.165054 181.0
191.179489 69.0
194.014923 60.0
195.11467 97.0
197.132309 255.0
198.130051 120.0
199.146652 398.0
200.154282 231.0
201.159912 294.0
203.105545 89.0
203.171509 191.0
210.128494 76.0
211.145996 458.0
212.151306 151.0
213.161484 1147.0
214.164047 227.0
215.095886 71.0
215.176636 200.0
216.113159 88.0
216.179108 141.0
217.19429 67.0
219.176559 60.0
223.169174 78.0
225.162231 344.0
226.173508 147.0
227.13916 81.0
227.176392 313.0
228.139694 70.0
228.182175 225.0
229.160202 62.0
230.20488 84.0
237.16095 260.0
239.181793 209.0
240.177719 80.0
241.188904 156.0
242.202469 132.0
243.206024 100.0
246.116226 90.0
251.101837 61.0
251.177628 697.0
252.178818 227.0
252.620438 69.0
253.150986 64.0
253.192169 2090.0
254.024246 74.0
254.198074 900.0
255.20517 571.0
255.718521 74.0
256.136444 63.0
256.212341 326.0
257.22113 179.0
259.62616 79.0
260.13269 71.0
261.184814 75.0
261.646088 62.0
265.19101 255.0
266.204376 74.0
267.207275 283.0
268.213043 152.0
269.186554 84.0
269.221771 192.0
270.151489 255.0
270.232239 103.0
270.651398 85.0
271.203094 76.0
272.151825 101.0
273.181366 157.0
273.218079 147.0
275.193085 90.0
279.159882 587.0
279.211243 194.0
279.66571 534.0
280.165161 98.0
280.21167 111.0
281.226654 413.0
282.21759 198.0
283.237183 95.0
284.228119 67.0
285.222961 86.0
288.166779 70.0
288.240326 82.0
290.664978 125.0
291.16684 97.0
291.661011 62.0
292.216187 63.0
293.22403 82.0
294.237549 104.0
295.253571 110.0
296.23999 67.0
299.197632 106.0
300.172638 225.0
300.662842 127.0
302.169952 59.0
305.784363 85.0
307.234375 76.0
308.240356 79.0
309.168182 61.0
311.673187 112.0
313.217651 556.0
314.215149 180.0
315.22699 290.0
316.227264 151.0
317.253693 61.0
318.246338 72.0
321.250793 159.0
325.224762 123.0
325.26004 69.0
328.235626 63.0
329.245117 108.0
333.247314 84.0
334.213165 63.0
345.237 83.0
347.230499 71.0
349.240723 69.0
351.160034 106.0
354.142761 66.0
355.249481 64.0
359.248627 103.0
363.252808 85.0
363.302856 774.0
364.312531 279.0
365.283478 76.0
365.312286 231.0
367.234741 130.0
367.267273 82.0
371.248657 70.0
373.237671 103.0
374.239594 83.0
375.255798 126.0
376.258362 108.0
377.256134 374.0
381.309967 309.0
382.316193 271.0
383.200012 63.0
383.3078 90.0
389.274536 86.0
390.272095 132.0
391.276611 141.0
401.270813 78.0
402.261658 95.0
403.296387 173.0
419.302094 83.0
423.276245 105.0
423.323395 1639.0
424.326935 1199.0
425.332703 552.0
426.325378 162.0
426.797882 67.0
427.694031 59.0
435.232666 102.0
436.117096 61.0
441.335083 1729.0
442.256042 74.0
442.336517 578.0
443.295868 65.0
443.345184 111.0
457.323517 74.0
458.906921 64.0
461.259735 65.0
463.254303 60.0
463.317017 3401.0
464.326172 769.0
465.324829 294.0
470.338287 75.0
481.335907 128.0
482.322205 74.0
483.346039 2154.0
484.188538 62.0
484.284332 156.0
484.349854 2087.0
485.275177 162.0
485.351074 3428.0
486.354767 733.0
486.781708 83.0
487.300507 64.0
487.386017 80.0
499.348633 92.0
501.355103 664.0
502.332611 83.0
502.3685 63.0
502.554626 64.0
503.370209 179.0
505.333374 193.0
509.363617 62.0
521.32782 440.0
522.330872 120.0
522.871094 66.0
523.186951 197.0
523.338135 82151.0
523.90979 69.0
524.0177 59.0
524.133667 79.0
524.169434 186.0
524.216797 187.0
524.342773 24957.0
524.464661 59.0
524.693115 74.0
525.011169 82.0
525.192261 108.0
525.347046 5017.0
526.347168 546.0
527.344482 177.0
541.356262 196.0
542.837524 68.0
543.362671 108.0
544.363708 228.0
545.298523 61.0
545.373596 868.0
546.375732 293.0
547.371094 89.0
557.303894 67.0
561.371704 156.0
565.346741 204.0
566.389038 67.0
567.388 127.0
576.60553 61.0
580.34259 69.0
581.073914 73.0
581.344116 1345.0
581.53302 76.0
581.658936 64.0
582.178223 62.0
582.293091 115.0
582.345764 464.0
582.467712 99.0
582.625916 72.0
582.800049 201.0
582.891541 72.0
583.056152 115.0
583.134155 107.0
583.359802 264306.0
583.486145 78.0
583.521851 148.0
583.577515 103.0
583.633606 69.0
583.669983 90.0
583.717834 104.0
583.75 138.0
583.81543 89.0
583.867188 113.0
583.96167 63.0
584.006958 89.0
584.066711 133.0
584.189819 225.0
584.362915 86956.0
584.527893 69.0
584.556152 126.0
584.64502 67.0
584.690918 60.0
584.737915 104.0
584.812134 92.0
584.89978 74.0
585.221741 257.0
585.366882 19723.0
585.809753 62.0
585.860107 94.0
585.985474 79.0
586.26062 72.0
586.368164 2354.0
586.707214 84.0
586.882507 59.0
587.262695 64.0
587.331238 74.0
587.378174 204.0
587.456238 92.0
587.626526 86.0
587.725952 68.0
587.900574 114.0
588.516357 76.0
588.811096 78.0
599.332031 321.0
600.335632 151.0
607.405273 59.0
624.363525 65.0
627.381042 62.0
631.096069 59.0
635.896851 64.0
638.001831 64.0
638.962891 69.0
640.353027 96.0
640.389771 68.0
640.688477 69.0
641.230469 83.0
641.314331 230.0
641.360352 1216.0
642.290039 64.0
642.37616 583.0
642.52887 65.0
642.694641 80.0
642.935913 99.0
643.042786 73.0
643.111511 152.0
643.380615 266989.0
643.492554 116.0
643.542969 103.0
643.654419 84.0
643.715881 74.0
643.768311 83.0
643.811157 85.0
643.865784 167.0
643.943848 146.0
643.992981 126.0
644.093018 95.0
644.124329 113.0
644.194092 321.0
644.383728 100628.0
644.527771 123.0
644.574951 118.0
644.727051 145.0
644.828186 93.0
644.989746 124.0
645.078064 137.0
645.144836 141.0
645.387512 21357.0
645.542297 94.0
645.955383 78.0
646.108093 95.0
646.232422 77.0
646.390015 2689.0
646.477844 74.0
646.517334 75.0
646.585999 61.0
646.898438 59.0
647.136963 66.0
647.322937 60.0
647.384583 295.0
647.539917 73.0
647.786987 86.0
647.960693 87.0
648.019409 68.0
648.098938 113.0
648.160522 79.0
648.901794 73.0
659.342773 215.0
660.368042 62.0
681.531189 59.0
969.066895 68.0
END IONS

BEGIN IONS
PEPMASS=643.382
TITLE=CCMSLIB00005465041
SPECTRUMID=CCMSLIB00005465041
COMPOUND_NAME="(3R,5S,7R,8R,9S,10S,12S,13R,14S,17R)-17-((R)-7-acetoxy-6-(acetoxymethyl)heptan-2-yl)-12-hydroxy-10,13-dimethylhexadecahydro-1H-cyclopenta[a]phenanthrene-3,7-diyl diacetate"
ADDUCT=[M+Na]1+
ION_MODE=positive
SMILES=CC(=O)OCC(CCCC(C)C1CCC2C3C(OC(C)=O)CC4CC(OC(C)=O)CCC4(C)C3CC(O)C12C)COC(C)=O
COLLISION_ENERGY=37.0
MS_MANUFACTURER=Bruker Daltonics
95.088203 313.0
97.1035 81.0
98.975853 75.0
104.249603 77.0
107.085449 289.0
109.098892 146.0
116.982201 63.0
117.071266 72.0
119.061134 82.0
119.084091 125.0
120.085045 71.0
121.101051 140.0
123.117332 178.0
124.084763 77.0
125.093979 95.0
129.065628 74.0
133.097504 108.0
135.11731 148.0
136.115738 60.0
137.131912 83.0
142.315491 60.0
143.067062 60.0
143.087463 196.0
145.101883 1014.0
146.106613 121.0
147.079376 140.0
147.115677 544.0
149.135605 124.0
150.132904 75.0
151.152405 63.0
155.084351 90.0
157.079285 89.0
157.097794 166.0
158.110931 144.0
159.118729 888.0
160.122635 236.0
161.132401 367.0
162.136063 179.0
163.143295 165.0
169.101013 207.0
171.11557 398.0
172.116028 167.0
173.130005 348.0
174.134659 153.0
175.087891 64.0
175.140762 207.0
176.15799 81.0
177.164078 214.0
183.114761 230.0
184.127792 66.0
185.130096 441.0
186.134674 227.0
187.147568 362.0
188.152222 108.0
189.157578 132.0
190.181122 63.0
195.105591 114.0
197.13179 238.0
198.148163 70.0
199.147461 293.0
200.160049 169.0
201.163666 306.0
203.177155 65.0
205.104187 70.0
209.126236 71.0
211.148331 388.0
212.126663 69.0
212.669647 70.0
213.161194 334.0
214.161499 198.0
215.167175 188.0
216.134781 76.0
216.175964 110.0
224.147461 60.0
225.162994 368.0
226.144241 74.0
227.144287 124.0
227.179855 234.0
228.152924 82.0
228.177872 247.0
229.158798 99.0
229.191681 133.0
230.194611 171.0
235.113525 61.0
235.16597 91.0
237.158829 175.0
239.173538 182.0
240.179291 95.0
241.200684 127.0
242.200592 121.0
245.196869 88.0
249.173019 70.0
251.178375 614.0
252.183868 215.0
253.194183 1488.0
254.148361 64.0
254.197845 892.0
255.209381 907.0
256.207153 238.0
258.153229 123.0
260.171844 77.0
263.197449 102.0
264.156525 75.0
265.195862 153.0
266.129517 70.0
267.155365 67.0
267.207275 88.0
268.213806 93.0
269.217194 171.0
269.65979 70.0
270.154846 742.0
270.658691 166.0
270.76712 68.0
271.195221 168.0
273.183685 96.0
273.224304 64.0
275.186951 77.0
277.210266 97.0
279.161102 977.0
279.205231 208.0
279.658264 230.0
280.167297 156.0
281.22403 300.0
283.229279 119.0
284.244293 61.0
288.166809 71.0
290.666351 82.0
291.208374 72.0
293.219238 193.0
295.238342 74.0
297.182312 140.0
297.224091 69.0
299.232971 117.0
299.607666 59.0
300.167633 565.0
300.674103 79.0
301.166901 58.0
302.156769 70.0
302.213593 57.0
302.575073 59.0
307.237732 83.0
308.250244 67.0
313.21109 654.0
314.219116 486.0
315.229584 242.0
316.234406 71.0
320.264954 71.0
321.242584 92.0
323.207062 72.0
327.234253 75.0
329.24704 169.0
330.237823 100.0
331.235382 76.0
331.522705 57.0
332.67218 75.0
333.23941 151.0
339.233063 57.0
341.249634 100.0
342.260223 58.0
343.25296 62.0
346.955658 58.0
347.258698 60.0
351.238129 107.0
352.30191 57.0
355.261688 174.0
359.254639 111.0
361.285339 65.0
363.304352 551.0
364.307678 203.0
365.283691 61.0
366.883636 62.0
372.264038 66.0
375.253265 229.0
376.263794 118.0
377.267914 58.0
381.312164 418.0
382.318451 220.0
383.323547 105.0
388.261505 89.0
389.2677 164.0
390.257202 66.0
390.85791 58.0
391.284729 120.0
397.302948 76.0
421.611328 91.0
421.73941 57.0
423.324829 1359.0
424.326843 528.0
425.332092 448.0
426.336365 136.0
437.240204 61.0
437.266785 60.0
441.282562 88.0
441.336975 1641.0
442.330963 214.0
443.341309 139.0
446.180328 68.0
457.311462 96.0
461.278015 58.0
463.319427 3783.0
464.263245 75.0
464.322968 859.0
465.326996 113.0
479.305359 57.0
481.329651 68.0
483.242126 60.0
483.346985 1732.0
484.348816 1468.0
485.352081 2223.0
486.2995 95.0
486.359161 382.0
497.299042 79.0
501.359375 492.0
502.358368 155.0
505.333862 93.0
507.350189 65.0
515.299744 90.0
521.27771 89.0
521.335022 168.0
521.885376 57.0
522.719849 66.0
523.135681 85.0
523.173523 147.0
523.338623 77154.0
523.662476 59.0
523.918091 84.0
524.007751 73.0
524.075806 77.0
524.154846 67.0
524.341431 24307.0
525.035339 69.0
525.133667 84.0
525.345398 4176.0
526.348328 519.0
527.356934 80.0
527.509094 61.0
532.037781 70.0
533.03302 70.0
540.309448 128.0
541.348389 85.0
543.355286 58.0
544.380188 74.0
545.372803 415.0
546.375732 347.0
553.118713 61.0
553.27124 119.0
557.319641 126.0
561.37262 193.0
565.351562 271.0
567.369507 125.0
568.449524 57.0
574.616333 63.0
579.044495 64.0
579.927734 58.0
580.161621 59.0
580.323853 94.0
580.844788 107.0
580.908325 86.0
581.345581 486.0
582.193298 67.0
582.242249 57.0
582.345581 246.0
582.478027 99.0
582.808777 68.0
582.890381 75.0
582.929199 76.0
583.067505 255.0
583.125488 231.0
583.359985 270417.0
583.465698 64.0
583.547546 98.0
583.626892 73.0
583.668945 80.0
583.809082 75.0
583.872375 57.0
583.944458 108.0
583.999939 61.0
584.055054 92.0
584.101074 285.0
584.154236 205.0
584.235657 547.0
584.36377 91822.0
584.534851 112.0
584.602661 85.0
584.671875 107.0
584.762878 61.0
584.944275 106.0
585.005981 61.0
585.094299 112.0
585.235657 229.0
585.275574 287.0
585.366211 18833.0
585.494019 66.0
585.678162 65.0
585.817139 79.0
585.854858 63.0
585.949463 64.0
586.09729 57.0
586.224121 60.0
586.263977 91.0
586.367432 2350.0
586.506042 68.0
586.869995 57.0
587.021851 99.0
587.201782 86.0
587.376892 222.0
587.830444 58.0
587.94873 100.0
588.154236 65.0
588.798096 68.0
588.874878 69.0
589.019653 89.0
599.32959 301.0
600.323792 210.0
601.332275 159.0
613.170776 58.0
637.770935 67.0
640.38855 76.0
640.616577 76.0
640.699585 66.0
641.367859 774.0
641.997375 67.0
642.133362 73.0
642.212463 90.0
642.36908 427.0
642.440979 66.0
642.807861 64.0
642.871948 90.0
643.013245 69.0
643.077332 124.0
643.132263 279.0
643.381897 269335.0
643.578308 70.0
643.727539 86.0
643.859192 194.0
643.955872 80.0
644.02301 154.0
644.182129 378.0
644.385376 104074.0
644.532593 114.0
644.596558 85.0
644.679016 61.0
644.728882 136.0
644.775513 103.0
644.818787 89.0
644.855408 117.0
644.897034 110.0
644.951111 95.0
645.027283 85.0
645.169922 90.0
645.222107 108.0
645.309509 538.0
645.388062 21589.0
645.546631 93.0
645.642761 99.0
645.708374 102.0
645.746704 94.0
645.840454 61.0
645.919312 80.0
645.976501 57.0
646.113586 63.0
646.207397 90.0
646.391357 3641.0
646.675659 67.0
646.877197 61.0
647.146606 79.0
647.402161 174.0
647.442688 93.0
647.992126 63.0
648.479492 73.0
649.152039 59.0
649.827759 64.0
650.662354 57.0
652.813721 67.0
659.27478 69.0
659.340881 236.0
660.358765 185.0
719.398804 59.0
720.359436 80.0
1248.68103 58.0
1511.440186 63.0
END IONS

BEGIN IONS
PEPMASS=602.243
TITLE=CCMSLIB00005465286
SPECTRUMID=CCMSLIB00005465286
COMPOUND_NAME="2-((4R)-4-((3R,5R,7S,9S,10S,13R,14S,17R)-7-hydroxy-10,13-dimethyl-3-(sulfooxy)hexadecahydro-1H-cyclopenta[a]phenanthren-17-yl)pentanamido)ethane-1-sulfonic acid"
ADDUCT=[M+Na]1+
ION_MODE=positive
SMILES=CC(CCC(=O)NCCS(=O)(=O)O)C1CCC2C3C(O)CC4CC(OS(=O)(=O)O)CCC4(C)C3CCC12C
COLLISION_ENERGY=37.0
MS_MANUFACTURER=Bruker Daltonics
126.024948 129.0
148.003799 7765.0
149.00528 347.0
149.999237 259.0
175.143646 110.0
208.064346 108.0
231.178162 68.0
244.205353 74.0
321.245483 75.0
322.10553 82.0
339.274048 92.0
356.073517 76.0
361.24939 267.0
362.249359 143.0
464.278259 178.0
466.270111 79.0
467.282471 151.0
486.263428 8309.0
487.268982 2283.0
488.262726 641.0
489.25885 101.0
502.114258 75.0
502.229126 2585.0
503.233795 996.0
504.271423 243.0
505.224548 90.0
505.28363 140.0
506.228882 178.0
518.193298 115.0
520.237488 980.0
521.241455 505.0
522.283386 127.0
524.27594 68.0
526.246033 113.0
543.260376 71.0
END IONS

BEGIN IONS
PEPMASS=602.243
TITLE=CCMSLIB00005465321
SPECTRUMID=CCMSLIB00005465321
COMPOUND_NAME="2-((4R)-4-((3R,5R,9S,10S,12S,13R,14S,17R)-12-hydroxy-10,13-dimethyl-3-(sulfooxy)hexadecahydro-1H-cyclopenta[a]phenanthren-17-yl)pentanamido)ethane-1-sulfonic acid"
ADDUCT=[M+Na]1+
ION_MODE=positive
SMILES=CC(CCC(=O)NCCS(=O)(=O)O)C1CCC2C3CCC4CC(OS(=O)(=O)O)CCC4(C)C3CC(O)C12C
COLLISION_ENERGY=37.0
MS_MANUFACTURER=Bruker Daltonics
135.115555 69.0
148.003662 10598.0
149.006073 226.0
150.000916 611.0
161.131439 67.0
166.007645 128.0
187.147598 98.0
295.238068 79.0
297.222534 71.0
321.258453 119.0
324.123383 71.0
339.267792 175.0
340.149445 67.0
341.264954 120.0
360.265015 104.0
361.250092 1313.0
362.255768 146.0
379.259369 677.0
380.266541 379.0
397.266632 135.0
464.282654 255.0
465.278931 93.0
466.280334 323.0
468.266266 133.0
469.247253 124.0
485.251801 82.0
486.180695 154.0
486.264099 9133.0
487.2659 2918.0
488.269745 682.0
489.249512 134.0
504.17038 103.0
504.276947 6460.0
505.276093 1419.0
506.271271 527.0
520.230652 72.0
522.288269 75.0
524.205078 67.0
524.255859 95.0
539.257751 98.0
END IONS

BEGIN IONS
PEPMASS=629.366
TITLE=CCMSLIB00005465331
SPECTRUMID=CCMSLIB00005465331
COMPOUND_NAME="(3R,6R)-6-((3R,5S,7R,8R,9S,10S,12S,13R,14S,17R)-3,7-diacetoxy-12-hydroxy-10,13-dimethylhexadecahydro-1H-cyclopenta[a]phenanthren-17-yl)heptane-1,3-diyl diacetate"
ADDUCT=[M+Na]1+
ION_MODE=positive
SMILES=CC(=O)OCCC(CCC(C)C1CCC2C3C(OC(C)=O)CC4CC(OC(C)=O)CCC4(C)C3CC(O)C12C)OC(C)=O
COLLISION_ENERGY=37.0
MS_MANUFACTURER=Bruker Daltonics
95.087227 774.0
96.089676 100.0
97.102768 184.0
98.108269 65.0
99.067543 55.0
99.103325 59.0
106.071732 61.0
107.088173 369.0
108.091438 140.0
109.102394 353.0
110.104248 163.0
111.116943 62.0
113.094383 60.0
117.066368 72.0
119.084145 192.0
120.091003 65.0
121.10125 655.0
122.104149 125.0
123.11937 217.0
124.118324 158.0
125.093567 79.0
127.077499 89.0
128.075775 69.0
131.086594 380.0
132.096298 61.0
133.103424 505.0
134.106964 82.0
135.117599 461.0
136.119873 176.0
137.129745 117.0
138.138885 121.0
143.085251 293.0
144.092239 111.0
145.10025 856.0
146.104874 114.0
147.079849 61.0
147.11644 880.0
148.123413 151.0
149.134781 660.0
150.138763 90.0
151.079193 57.0
151.150299 80.0
155.086197 117.0
157.099899 732.0
158.103134 105.0
159.117416 1601.0
160.124115 244.0
161.096115 57.0
161.132904 741.0
162.134079 115.0
163.142929 104.0
164.153305 75.0
169.102295 193.0
170.082092 56.0
170.110321 80.0
171.118668 725.0
172.120087 205.0
172.300507 55.0
173.095795 53.0
173.132645 843.0
174.108627 64.0
175.119141 62.0
175.151794 302.0
176.150009 76.0
178.163712 65.0
181.098969 73.0
181.162094 67.0
183.116379 465.0
185.133179 776.0
186.135086 104.0
187.152695 391.0
188.150009 253.0
189.128647 58.0
189.164368 206.0
192.134918 68.0
195.027496 51.0
195.114929 130.0
196.13504 66.0
197.130875 597.0
198.134598 130.0
199.147034 1172.0
200.151077 439.0
201.122147 157.0
201.160797 446.0
202.167496 140.0
203.104858 51.0
203.160004 116.0
205.18042 54.0
207.135147 73.0
208.146469 71.0
209.133743 167.0
210.132126 145.0
211.150085 1091.0
212.152435 265.0
213.163605 1175.0
214.096085 66.0
214.169846 390.0
215.180573 688.0
216.182861 174.0
217.173172 58.0
217.202789 61.0
218.124222 72.0
219.177811 59.0
221.194412 81.0
221.773346 57.0
223.151077 155.0
224.142441 135.0
224.633575 58.0
225.163666 774.0
226.170868 131.0
227.177139 785.0
228.184677 325.0
229.159256 356.0
229.197662 284.0
231.209274 153.0
232.204666 62.0
235.484589 55.0
237.181885 84.0
237.554855 66.0
238.160934 85.0
238.1875 110.0
239.180176 903.0
240.18338 206.0
241.195084 1012.0
242.143524 129.0
242.198471 219.0
242.647186 116.0
243.133972 66.0
243.17865 161.0
243.204971 175.0
244.167709 55.0
244.212662 82.0
245.202591 65.0
245.229492 112.0
247.222275 62.0
249.189835 57.0
251.146606 180.0
251.179672 741.0
252.186661 456.0
252.621002 85.0
253.135712 127.0
253.195206 3089.0
254.146378 60.0
254.199982 993.0
255.211029 748.0
256.187592 97.0
256.22049 290.0
257.175385 107.0
257.197998 93.0
257.217896 105.0
259.16745 98.0
259.200439 55.0
261.175812 51.0
261.214569 126.0
261.75058 61.0
263.148102 443.0
263.179169 117.0
263.635315 58.0
263.65918 99.0
264.140656 84.0
265.198425 355.0
266.20752 175.0
267.209503 661.0
268.214996 338.0
269.190613 112.0
269.224548 115.0
271.168671 76.0
271.210144 89.0
271.248077 107.0
272.155151 455.0
272.654572 254.0
273.183136 208.0
273.215851 144.0
273.657043 81.0
274.167236 56.0
274.21759 60.0
275.162781 54.0
276.20871 88.0
276.638184 71.0
277.190613 71.0
279.215942 393.0
281.159851 226.0
281.193817 168.0
281.228058 1146.0
281.662567 51.0
282.227997 342.0
283.235352 250.0
283.661835 59.0
284.24057 82.0
285.234467 117.0
286.186157 51.0
289.19574 57.0
291.228851 53.0
291.975159 54.0
293.160828 304.0
293.230927 332.0
293.661896 81.0
294.231873 77.0
295.242432 244.0
296.171478 55.0
296.238129 108.0
297.249817 68.0
299.166321 51.0
299.198975 152.0
299.240814 60.0
300.196716 122.0
301.2164 381.0
302.215607 72.0
303.23053 194.0
304.233673 54.0
305.248627 70.0
307.244263 271.0
308.245544 160.0
309.260986 62.0
310.261688 60.0
313.215179 1222.0
314.22171 747.0
315.227112 370.0
316.24704 150.0
317.23587 123.0
321.249146 53.0
325.12973 64.0
325.232544 63.0
327.223663 234.0
328.255859 69.0
329.211487 97.0
330.254578 62.0
337.289001 60.0
339.319092 63.0
340.24881 51.0
341.24823 381.0
342.25116 198.0
343.254944 108.0
348.936676 63.0
349.213898 52.0
349.290344 3153.0
350.223541 99.0
350.290802 1028.0
351.288025 380.0
353.247192 101.0
353.511047 52.0
354.252045 76.0
355.265442 83.0
360.199921 79.0
362.233582 77.0
363.238861 60.0
367.299713 860.0
368.263519 87.0
368.304321 179.0
368.95932 71.0
369.268097 98.0
369.306763 181.0
374.258698 55.0
376.099701 58.0
377.252258 82.0
379.301025 60.0
381.277557 61.0
381.716156 52.0
385.317383 190.0
386.310699 73.0
389.284058 62.0
391.293854 147.0
393.596771 76.0
394.284027 59.0
397.217651 58.0
399.337311 115.0
400.167786 72.0
407.377441 57.0
409.1716 51.0
409.311127 5468.0
409.713135 56.0
410.315643 2318.0
411.280548 217.0
411.320312 1098.0
412.308533 112.0
413.323914 68.0
414.239899 71.0
416.506012 54.0
422.293518 52.0
427.317841 605.0
428.322632 153.0
431.295074 94.0
431.321381 116.0
433.31073 51.0
434.691467 61.0
435.253143 67.0
435.325073 185.0
436.282501 81.0
442.271362 67.0
442.639435 59.0
446.276123 52.0
447.208832 55.0
447.248138 66.0
448.512909 95.0
449.302521 14972.0
449.434601 82.0
450.234833 172.0
450.305939 4094.0
451.312347 845.0
461.237579 59.0
466.27948 66.0
467.312927 152.0
468.188538 54.0
468.277985 78.0
468.308502 96.0
469.330505 1127.0
470.337311 929.0
471.341156 1021.0
472.352509 208.0
473.345337 55.0
482.563416 63.0
483.237854 71.0
483.285126 109.0
484.284668 77.0
487.352661 200.0
488.372986 54.0
491.30658 85.0
492.394043 53.0
495.358826 84.0
496.402283 56.0
501.291992 75.0
504.088318 53.0
505.287781 63.0
506.251526 52.0
506.30188 75.0
506.554962 52.0
507.310303 281.0
507.351135 192.0
507.721252 53.0
507.772766 52.0
508.283142 55.0
508.32074 63.0
508.610535 72.0
508.752625 61.0
509.016052 61.0
509.056519 109.0
509.128265 85.0
509.323395 94323.0
509.755463 74.0
509.935059 88.0
509.984528 111.0
510.05188 66.0
510.121216 108.0
510.326752 30937.0
510.462006 52.0
511.19278 60.0
511.3302 5067.0
512.3349 529.0
512.994202 61.0
513.085083 53.0
513.339844 115.0
515.266052 51.0
515.401367 51.0
525.288208 161.0
526.292542 94.0
527.22821 55.0
527.328491 78.0
530.353455 163.0
531.362 309.0
532.357605 99.0
535.303955 61.0
536.831299 58.0
538.356506 51.0
543.282532 71.0
544.293518 65.0
544.546082 57.0
545.306641 53.0
547.401001 64.0
549.303223 61.0
551.335632 210.0
552.341919 193.0
553.352417 57.0
553.393799 57.0
556.868042 57.0
557.101501 56.0
560.91687 57.0
561.006653 55.0
561.467163 51.0
561.851013 51.0
563.523621 58.0
565.317566 86.0
565.763916 72.0
566.301636 69.0
566.347595 141.0
567.321106 482.0
567.494141 64.0
567.804993 85.0
567.856628 59.0
568.072021 139.0
568.15448 63.0
568.20697 95.0
568.328064 353.0
568.431824 122.0
568.846008 86.0
568.913574 59.0
568.975769 91.0
569.026855 89.0
569.12854 175.0
569.344971 284433.0
569.455994 164.0
569.482178 151.0
569.554443 111.0
569.601318 58.0
569.653015 61.0
569.700073 131.0
569.762085 167.0
569.789368 163.0
569.844238 120.0
569.887634 100.0
569.935425 116.0
570.049561 145.0
570.093018 262.0
570.13623 195.0
570.189392 395.0
570.348206 94830.0
570.493225 87.0
570.530762 216.0
570.645691 101.0
570.690491 110.0
570.734741 80.0
570.827881 84.0
570.867737 75.0
570.906006 115.0
570.980774 72.0
571.039978 55.0
571.095276 132.0
571.200989 109.0
571.352051 17889.0
571.48822 92.0
571.571655 75.0
571.609436 71.0
571.677856 76.0
571.876404 102.0
571.914001 62.0
571.964783 53.0
572.096313 122.0
572.175537 59.0
572.26416 123.0
572.356018 2622.0
572.550415 70.0
572.739502 55.0
573.04895 58.0
573.342102 284.0
573.3797 148.0
573.485229 66.0
573.558167 55.0
573.905945 63.0
574.185974 57.0
574.746887 86.0
574.98938 53.0
585.30658 490.0
585.563049 55.0
586.313354 197.0
587.097107 55.0
587.30127 83.0
595.305786 60.0
611.347656 70.0
615.43811 53.0
619.973816 79.0
621.401428 57.0
622.262817 51.0
622.783203 52.0
622.928711 56.0
624.312012 53.0
624.524414 51.0
624.878235 71.0
625.130127 58.0
626.269348 96.0
626.346741 124.0
627.263916 64.0
627.348389 679.0
627.735474 56.0
628.062317 61.0
628.225159 122.0
628.300537 117.0
628.355469 318.0
628.682556 51.0
628.778015 61.0
628.940796 102.0
629.009094 88.0
629.052979 71.0
629.181458 606.0
629.367188 307884.0
629.547119 151.0
629.623962 68.0
629.68335 63.0
629.722961 61.0
629.801147 133.0
629.840271 132.0
629.874634 322.0
629.918213 110.0
629.970215 158.0
630.10321 116.0
630.194519 383.0
630.370728 113130.0
630.566223 80.0
630.68219 117.0
630.724487 163.0
630.778015 89.0
630.838379 129.0
630.923706 96.0
630.965027 93.0
631.03595 78.0
631.118713 78.0
631.194153 171.0
631.235596 143.0
631.374146 25291.0
631.520081 59.0
631.579468 63.0
631.747192 69.0
631.80365 134.0
631.965881 115.0
632.031677 99.0
632.237 82.0
632.310547 286.0
632.375671 2472.0
632.62677 52.0
632.869995 73.0
633.079407 57.0
633.179749 52.0
633.270142 88.0
633.372314 183.0
633.450867 57.0
633.513672 57.0
633.822754 73.0
633.87207 52.0
634.011353 63.0
634.049072 80.0
634.091431 51.0
634.346558 69.0
634.389465 94.0
635.093872 54.0
635.625244 69.0
635.962097 64.0
637.121765 54.0
637.3255 51.0
645.330811 308.0
646.357971 97.0
647.333313 80.0
648.286499 65.0
969.288757 51.0
1162.924438 56.0
1425.40918 52.0
1971.667603 55.0
END IONS

BEGIN IONS
PEPMASS=602.243
TITLE=CCMSLIB00005465358
SPECTRUMID=CCMSLIB00005465358
COMPOUND_NAME="2-((4R)-4-((3R,5R,7R,9S,10S,13R,14S,17R)-7-hydroxy-10,13-dimethyl-3-(sulfooxy)hexadecahydro-1H-cyclopenta[a]phenanthren-17-yl)pentanamido)ethane-1-sulfonic acid"
ADDUCT=[M+Na]1+
ION_MODE=positive
SMILES=CC(CCC(=O)NCCS(=O)(=O)O)C1CCC2C3C(O)CC4CC(OS(=O)(=O)O)CCC4(C)C3CCC12C
COLLISION_ENERGY=37.0
MS_MANUFACTURER=Bruker Daltonics
117.068825 82.0
126.027657 118.0
148.004364 15800.0
149.007843 567.0
149.999054 449.0
175.147385 132.0
177.158875 71.0
189.162766 146.0
191.141663 88.0
201.165756 148.0
202.167007 114.0
203.171249 71.0
208.06337 122.0
209.064987 78.0
210.065338 73.0
215.140991 74.0
218.158722 76.0
228.026947 67.0
229.155502 145.0
229.204071 77.0
234.082733 80.0
263.119995 75.0
284.633362 70.0
286.10675 93.0
321.254913 179.0
324.13681 70.0
339.27002 231.0
340.269958 97.0
360.25943 280.0
361.247986 953.0
362.260498 125.0
364.153931 155.0
368.172241 121.0
378.167633 88.0
378.274353 153.0
390.160522 78.0
404.184113 67.0
420.226715 74.0
464.282257 429.0
465.276184 198.0
466.276794 239.0
467.294373 136.0
468.25415 103.0
469.255096 80.0
486.174622 172.0
486.263794 18753.0
487.268311 5729.0
488.265106 1282.0
489.26825 527.0
502.175568 69.0
502.230072 548.0
503.228546 267.0
504.213806 91.0
504.275177 3302.0
505.275787 1232.0
506.266846 228.0
520.235901 154.0
522.284241 245.0
523.284119 86.0
524.278564 77.0
538.251099 73.0
END IONS

BEGIN IONS
PEPMASS=629.366
TITLE=CCMSLIB00005465379
SPECTRUMID=CCMSLIB00005465379
COMPOUND_NAME="(3R,6R)-6-((3R,5S,7R,8R,9S,10S,12S,13R,14S,17R)-3,7-diacetoxy-12-hydroxy-10,13-dimethylhexadecahydro-1H-cyclopenta[a]phenanthren-17-yl)heptane-1,3-diyl diacetate"
ADDUCT=[M+Na]1+
ION_MODE=positive
SMILES=CC(=O)OCCC(CCC(C)C1CCC2C3C(OC(C)=O)CC4CC(OC(C)=O)CCC4(C)C3CC(O)C12C)OC(C)=O
COLLISION_ENERGY=37.0
MS_MANUFACTURER=Bruker Daltonics
95.085327 569.0
98.980682 159.0
101.865982 60.0
104.039673 71.0
105.069839 367.0
107.083664 314.0
108.089264 56.0
109.100891 571.0
111.075661 61.0
117.07177 71.0
119.082962 306.0
121.100044 660.0
122.101585 156.0
123.116066 258.0
129.06987 129.0
131.085129 772.0
132.090118 92.0
133.100067 400.0
134.109131 87.0
134.997604 78.0
135.117294 666.0
136.120087 227.0
137.13118 197.0
142.077759 80.0
143.085144 455.0
145.101425 1117.0
146.099808 154.0
147.084213 88.0
147.115952 911.0
147.934769 50.0
148.097778 62.0
148.121674 92.0
149.132385 642.0
150.106354 58.0
150.13443 127.0
151.147308 80.0
153.004532 117.0
155.085693 288.0
156.089661 99.0
157.099976 568.0
158.100967 50.0
159.117615 1143.0
160.117844 155.0
161.090012 70.0
161.131134 536.0
162.130722 158.0
163.146576 229.0
166.650879 49.0
169.103592 196.0
170.104065 132.0
171.117447 501.0
172.119919 186.0
173.128906 538.0
173.520233 61.0
174.133377 194.0
175.143387 178.0
176.155487 139.0
177.003891 63.0
181.098328 150.0
183.116165 438.0
184.118805 195.0
185.130447 998.0
186.108765 53.0
186.131439 227.0
187.084915 71.0
187.147186 373.0
188.152069 139.0
189.139053 99.0
189.159119 165.0
192.179474 67.0
194.127396 49.0
195.016312 155.0
196.127945 56.0
197.130554 640.0
198.134735 137.0
199.147598 772.0
200.144592 129.0
201.163803 721.0
202.165436 171.0
203.098389 55.0
203.172623 177.0
205.162201 60.0
207.139923 183.0
208.13858 63.0
208.598053 65.0
209.129608 251.0
210.134293 187.0
211.147018 1890.0
212.147614 305.0
213.161621 1266.0
214.165955 269.0
215.177582 959.0
216.181122 418.0
217.155441 87.0
217.193054 68.0
218.200089 58.0
221.133133 61.0
223.151215 240.0
224.147324 95.0
225.164169 522.0
226.168396 95.0
226.222351 52.0
227.14122 96.0
227.180252 665.0
228.180237 259.0
229.081955 91.0
229.154251 99.0
229.196915 150.0
230.125626 89.0
231.173065 125.0
231.216904 79.0
233.442123 59.0
237.155426 100.0
239.111389 59.0
239.178574 1162.0
239.952988 51.0
240.181122 176.0
241.119553 55.0
241.192459 1006.0
241.242126 70.0
242.143646 119.0
242.197418 272.0
243.17157 91.0
243.21434 88.0
245.220688 105.0
247.166809 108.0
251.151352 521.0
251.180923 641.0
251.649277 187.0
252.158096 122.0
252.185974 249.0
252.64772 80.0
252.846176 51.0
253.193726 3308.0
254.138474 66.0
254.197678 1186.0
254.647354 79.0
255.174911 128.0
255.209366 1688.0
256.211395 477.0
257.220581 260.0
258.198486 86.0
261.179871 101.0
263.150177 80.0
263.193939 59.0
265.189209 118.0
266.201691 188.0
267.209229 594.0
268.214294 296.0
269.19281 57.0
269.22171 78.0
269.296204 70.0
270.220184 49.0
271.168549 81.0
271.206451 112.0
271.237488 51.0
271.641235 130.0
272.113159 56.0
272.156219 139.0
272.214081 67.0
272.247284 57.0
272.653107 337.0
273.156555 90.0
273.180511 129.0
275.193695 109.0
278.301056 49.0
279.210693 171.0
280.211731 91.0
281.171082 99.0
281.225952 1102.0
281.657745 50.0
282.227264 570.0
283.237762 292.0
284.209686 86.0
285.132904 65.0
287.201965 86.0
289.220062 230.0
293.159393 195.0
293.225098 284.0
293.6604 188.0
295.237305 120.0
296.248291 126.0
299.155884 75.0
299.199951 395.0
299.236969 105.0
299.445435 51.0
300.182739 57.0
301.174469 56.0
301.214081 285.0
302.222168 243.0
302.673187 51.0
303.227844 144.0
306.594574 58.0
307.239105 236.0
308.237305 97.0
309.258423 94.0
311.242737 138.0
312.20694 59.0
313.065979 74.0
313.212494 1156.0
314.165009 67.0
314.221497 412.0
315.225128 395.0
317.205353 61.0
317.249298 125.0
319.670898 50.0
321.261292 91.0
321.458679 87.0
322.256439 127.0
323.270905 113.0
324.173584 55.0
326.650055 53.0
327.229919 345.0
328.230347 75.0
330.250641 96.0
331.247803 58.0
332.226379 55.0
339.234039 51.0
339.315735 61.0
341.248779 533.0
341.462952 66.0
342.243469 141.0
342.888733 49.0
343.254028 170.0
344.26062 82.0
345.178741 69.0
345.255341 96.0
347.268188 59.0
349.287109 2264.0
350.29245 1007.0
351.293213 563.0
352.30246 86.0
352.418243 53.0
353.250671 76.0
354.65564 51.0
355.253174 75.0
357.261688 56.0
361.239655 53.0
363.217896 50.0
365.781433 64.0
367.295746 678.0
368.236511 58.0
368.295441 149.0
369.299164 111.0
372.147858 51.0
373.096649 59.0
374.276337 50.0
376.248901 50.0
380.886414 60.0
383.288513 77.0
385.313293 249.0
389.275146 69.0
396.628479 67.0
397.111481 52.0
397.303864 57.0
398.833954 50.0
399.318481 100.0
400.334534 57.0
401.321259 50.0
407.289032 51.0
408.776611 49.0
408.988281 67.0
409.169861 58.0
409.208893 88.0
409.308197 8703.0
410.252808 124.0
410.313477 2398.0
411.313843 2500.0
412.318451 431.0
412.962677 49.0
416.783325 76.0
427.322845 511.0
428.275391 56.0
428.323608 100.0
429.230164 60.0
429.325592 60.0
430.309631 55.0
430.363251 51.0
447.293518 73.0
448.285065 55.0
449.091278 51.0
449.192474 177.0
449.301697 14920.0
450.227661 168.0
450.305237 4554.0
451.309814 598.0
452.250916 49.0
452.309265 76.0
461.205414 64.0
461.234253 53.0
465.265625 211.0
465.887482 55.0
466.264099 67.0
467.300659 135.0
468.311462 51.0
469.141907 57.0
469.328827 1340.0
470.335022 903.0
471.290771 156.0
471.334564 1315.0
472.342621 246.0
477.710968 49.0
483.280273 175.0
484.280609 51.0
487.227142 50.0
488.486542 70.0
491.319641 190.0
492.315491 114.0
493.037201 62.0
495.994995 63.0
502.29776 77.0
507.249786 49.0
507.891235 53.0
508.225739 52.0
508.479248 68.0
509.036621 68.0
509.322876 97934.0
509.481445 110.0
509.515289 84.0
509.557068 49.0
509.679199 122.0
509.746521 61.0
509.774719 70.0
509.92569 69.0
510.161896 108.0
510.326263 30267.0
510.90332 61.0
510.975952 62.0
511.018097 91.0
511.065704 59.0
511.329559 5325.0
511.43454 52.0
511.776611 50.0
512.264038 85.0
512.328674 636.0
513.462769 64.0
514.191772 63.0
519.088623 60.0
523.145142 59.0
523.758667 49.0
525.239746 63.0
525.281433 479.0
526.294983 159.0
526.696045 56.0
527.262573 72.0
527.297424 117.0
528.299561 105.0
529.291626 60.0
529.3479 63.0
530.266968 50.0
530.358398 263.0
531.359497 591.0
532.355957 125.0
533.335327 53.0
535.146179 50.0
535.205261 50.0
538.330017 55.0
543.300354 132.0
544.333252 68.0
545.304749 93.0
551.331177 388.0
552.335754 124.0
556.461182 52.0
556.83313 55.0
558.738525 70.0
562.907593 63.0
563.42804 51.0
565.310364 60.0
565.406494 51.0
565.783203 79.0
565.982971 50.0
566.339355 93.0
566.515198 60.0
566.842285 83.0
566.90686 58.0
567.100159 50.0
567.331177 50.0
567.388672 51.0
567.804077 53.0
567.862366 108.0
567.906982 80.0
567.985413 108.0
568.210327 92.0
568.254089 56.0
568.418213 61.0
568.520203 60.0
568.733398 63.0
568.774414 59.0
568.84314 131.0
568.919922 106.0
568.991333 120.0
569.055298 92.0
569.343689 369019.0
569.448425 63.0
569.483643 76.0
569.667969 130.0
569.729614 139.0
569.782471 153.0
569.82666 134.0
569.867126 142.0
569.920593 210.0
570.052246 105.0
570.082458 166.0
570.170593 519.0
570.347046 121598.0
570.484924 124.0
570.544067 92.0
570.582153 91.0
570.774048 94.0
570.835205 201.0
570.888672 51.0
570.931152 91.0
570.997375 127.0
571.039062 140.0
571.072632 183.0
571.135132 103.0
571.247864 324.0
571.350525 24202.0
571.473694 123.0
571.530151 50.0
571.579285 60.0
571.607361 63.0
571.651306 72.0
571.701477 51.0
571.797058 54.0
571.981445 72.0
572.07605 78.0
572.155945 82.0
572.230835 115.0
572.351562 2516.0
572.484314 64.0
572.562317 64.0
572.799194 63.0
572.840088 61.0
572.933289 49.0
573.074158 59.0
573.134644 62.0
573.353943 181.0
573.436279 83.0
573.511108 73.0
573.570007 101.0
573.744507 97.0
573.785767 71.0
573.841553 94.0
574.402893 69.0
575.426208 54.0
576.160645 54.0
578.010559 76.0
585.252014 131.0
585.305908 958.0
586.264648 52.0
586.314575 408.0
586.799011 54.0
587.320129 105.0
588.321411 74.0
588.347717 92.0
589.289673 60.0
595.637146 86.0
604.318909 68.0
614.478027 52.0
618.260559 61.0
620.787231 65.0
620.914795 56.0
621.31604 54.0
621.815918 63.0
621.932251 63.0
622.169189 56.0
622.30957 54.0
622.605835 73.0
622.960815 54.0
623.073059 64.0
623.369507 53.0
624.933716 76.0
625.019836 88.0
625.075256 51.0
625.186035 54.0
625.407898 49.0
626.040527 61.0
626.324158 55.0
627.135803 51.0
627.227051 61.0
627.302795 90.0
627.34314 100.0
627.418396 50.0
627.597534 52.0
627.628052 62.0
627.763672 73.0
628.032959 64.0
628.077942 51.0
628.274719 91.0
628.312561 49.0
628.373962 64.0
628.4375 53.0
628.518188 72.0
628.598206 72.0
628.81488 108.0
628.891785 87.0
629.050476 152.0
629.365173 373460.0
629.514648 122.0
629.568115 73.0
629.596802 70.0
629.632935 81.0
629.687866 92.0
629.762146 112.0
629.819946 82.0
629.867798 113.0
629.931641 189.0
630.014404 76.0
630.046814 146.0
630.086548 176.0
630.181396 538.0
630.368286 141901.0
630.512878 80.0
630.658081 99.0
630.752563 60.0
630.802246 88.0
630.858765 64.0
630.925598 94.0
630.972778 92.0
631.051331 143.0
631.09613 85.0
631.161377 154.0
631.371643 30106.0
631.555298 125.0
631.618652 81.0
631.68573 89.0
631.739441 69.0
631.935303 56.0
632.006226 67.0
632.095032 52.0
632.291199 127.0
632.372925 4139.0
632.619568 59.0
632.698242 51.0
632.926025 57.0
633.111328 60.0
633.201538 51.0
633.375793 344.0
633.567932 49.0
633.64209 69.0
633.833862 66.0
633.896301 80.0
633.976318 61.0
634.031555 62.0
634.107666 89.0
634.183533 94.0
635.034424 66.0
636.037354 56.0
645.263977 49.0
645.329468 835.0
646.338867 301.0
647.335999 90.0
664.58783 61.0
690.083984 54.0
705.365662 108.0
706.336792 108.0
706.36792 124.0
753.176086 52.0
843.909973 51.0
930.437561 52.0
1017.007629 50.0
1022.33783 49.0
1149.005859 53.0
1581.412109 54.0
1794.749268 54.0
1801.906738 59.0
END IONS

BEGIN IONS
PEPMASS=643.382
TITLE=CCMSLIB00005465394
SPECTRUMID=CCMSLIB00005465394
COMPOUND_NAME="(3R,5R,7R,8R,9S,10S,12S,13R,14S,17R)-17-((R)-7-acetoxy-6-(acetoxymethyl)heptan-2-yl)-12-hydroxy-10,13-dimethylhexadecahydro-1H-cyclopenta[a]phenanthrene-3,7-diyl diacetate"
ADDUCT=[M+Na]1+
ION_MODE=positive
SMILES=CC(=O)OCC(CCCC(C)C1CCC2C3C(OC(C)=O)CC4CC(OC(C)=O)CCC4(C)C3CC(O)C12C)COC(C)=O
COLLISION_ENERGY=37.0
MS_MANUFACTURER=Bruker Daltonics
95.089836 284.0
96.088646 63.0
98.505135 80.0
105.071358 299.0
107.083824 264.0
109.101814 439.0
110.107193 141.0
116.985168 60.0
119.086372 140.0
121.10421 180.0
123.121193 253.0
124.114304 60.0
131.088593 318.0
132.088745 80.0
133.102203 348.0
134.995911 64.0
135.083664 75.0
135.117401 338.0
136.00322 73.0
137.137833 128.0
138.134155 60.0
141.080276 61.0
143.087555 209.0
144.094528 110.0
145.103348 965.0
146.10704 206.0
147.117813 681.0
149.134567 395.0
157.101273 240.0
158.094299 95.0
159.118668 536.0
160.122498 98.0
161.134079 485.0
162.137772 285.0
163.149353 136.0
164.155518 104.0
169.101791 188.0
170.107239 196.0
171.118057 577.0
172.120331 311.0
173.134323 605.0
174.13588 93.0
175.151123 328.0
176.151367 195.0
177.168869 145.0
179.181915 121.0
182.107452 66.0
183.11795 296.0
184.122528 104.0
185.13533 574.0
186.135895 170.0
187.149277 529.0
188.155289 143.0
189.120865 66.0
189.165665 170.0
191.146667 62.0
191.176132 88.0
192.182404 102.0
195.014618 59.0
196.019348 60.0
197.134644 273.0
199.150467 802.0
200.149933 265.0
200.203217 63.0
201.164581 453.0
202.170227 65.0
209.128265 260.0
210.119934 64.0
211.149368 747.0
212.106964 68.0
212.153717 399.0
213.164795 1103.0
214.169052 232.0
215.180252 761.0
216.187668 217.0
217.155212 66.0
217.190872 153.0
218.189819 78.0
219.183014 60.0
221.15242 75.0
223.148666 300.0
225.162613 470.0
226.170822 73.0
227.182831 361.0
228.182251 119.0
229.118622 77.0
229.186829 103.0
230.164749 80.0
231.174255 91.0
233.193039 66.0
237.111725 63.0
237.166245 170.0
238.628525 85.0
239.181625 319.0
240.185013 138.0
241.192108 252.0
242.204987 134.0
243.117676 74.0
243.196564 99.0
244.200348 93.0
245.228546 94.0
247.165741 93.0
248.845795 65.0
249.152557 129.0
249.638367 71.0
251.180634 897.0
252.175842 104.0
253.196426 2342.0
254.196548 1006.0
255.164749 76.0
255.210587 1005.0
256.212097 215.0
257.176575 61.0
257.216736 106.0
259.126099 87.0
259.165375 148.0
260.652496 62.0
261.151306 239.0
261.664581 60.0
263.15271 70.0
264.183563 79.0
265.155518 59.0
265.191315 172.0
266.202942 76.0
266.638062 62.0
267.206909 163.0
268.216248 118.0
269.185822 164.0
269.224579 234.0
269.635925 66.0
270.152435 234.0
270.189514 178.0
270.230804 81.0
270.662262 182.0
271.124451 64.0
271.155945 114.0
271.207275 156.0
272.132355 72.0
272.223663 91.0
273.191223 109.0
273.225067 93.0
274.190491 118.0
275.195648 132.0
279.162933 1858.0
279.222717 77.0
279.66333 315.0
280.162933 118.0
280.211548 144.0
281.154266 102.0
281.226074 466.0
282.223358 482.0
283.161621 68.0
283.237549 166.0
284.517517 77.0
285.177704 69.0
289.172546 60.0
290.662354 85.0
291.166626 216.0
291.657196 64.0
293.174591 95.0
293.222992 374.0
294.253296 62.0
295.240021 177.0
297.249603 60.0
297.337341 62.0
299.182281 68.0
299.249847 171.0
300.166962 849.0
300.660431 212.0
301.170624 146.0
302.141357 59.0
302.66925 85.0
307.095673 72.0
307.239075 192.0
308.242188 135.0
309.244476 91.0
313.214172 803.0
314.220642 367.0
315.228333 517.0
316.222778 120.0
317.236694 107.0
319.238647 59.0
321.259369 233.0
325.233765 99.0
329.257874 188.0
330.250305 113.0
333.226593 131.0
334.663971 61.0
339.242035 64.0
340.314697 61.0
341.247223 310.0
342.255219 118.0
353.238983 63.0
355.161163 98.0
355.247711 101.0
357.285339 62.0
361.261841 62.0
362.297485 71.0
363.306458 2320.0
364.309631 856.0
365.245483 69.0
365.309113 197.0
367.264587 83.0
369.275604 84.0
371.196411 75.0
375.176544 93.0
375.252563 73.0
376.17746 73.0
376.251556 83.0
377.266174 141.0
379.301483 134.0
381.313507 606.0
382.33432 60.0
383.313721 62.0
384.215698 83.0
390.273743 105.0
391.274414 87.0
399.330658 79.0
403.279388 100.0
404.301086 59.0
414.915009 59.0
423.323792 3343.0
424.328857 1042.0
425.329468 1085.0
426.32489 82.0
431.234039 80.0
437.232239 69.0
441.335815 1311.0
442.337708 451.0
443.342133 138.0
461.296387 138.0
463.231659 140.0
463.317688 10219.0
464.318726 3069.0
465.329102 410.0
466.09314 62.0
469.109833 62.0
475.226685 113.0
477.282501 59.0
479.293091 83.0
481.331696 125.0
483.260101 59.0
483.347015 2296.0
484.2565 109.0
484.350006 1491.0
485.239929 75.0
485.351318 2096.0
486.280212 108.0
486.362518 405.0
487.354004 179.0
488.197662 64.0
493.264191 70.0
495.959503 77.0
496.864899 88.0
497.297363 205.0
498.303741 60.0
501.271362 78.0
501.314301 79.0
501.361053 254.0
502.359344 127.0
503.323242 126.0
504.305481 59.0
505.32782 185.0
509.279419 71.0
515.298096 112.0
520.30658 69.0
521.231812 90.0
521.321533 1487.0
522.076477 61.0
522.219299 59.0
522.328003 647.0
522.48999 59.0
523.111328 97.0
523.338562 84715.0
523.484009 77.0
523.651611 78.0
523.820312 79.0
524.341309 26797.0
524.613953 71.0
524.697083 79.0
525.099915 66.0
525.251648 223.0
525.34552 5136.0
526.125183 69.0
526.332642 400.0
526.3974 69.0
526.657654 64.0
527.367126 75.0
527.531616 76.0
533.514282 62.0
539.163391 68.0
539.298767 311.0
540.305847 134.0
541.352295 186.0
543.375732 140.0
544.30542 65.0
544.369873 132.0
545.375977 1009.0
546.370483 307.0
557.323608 138.0
558.305054 63.0
559.328369 72.0
561.38855 87.0
562.371338 61.0
563.338135 82.0
564.331177 107.0
565.333801 153.0
565.363892 202.0
566.351318 88.0
567.403687 72.0
570.470337 69.0
575.772705 70.0
576.164429 83.0
580.343262 209.0
580.847473 75.0
581.009216 72.0
581.219971 103.0
581.347473 5405.0
581.571594 88.0
582.186401 81.0
582.348877 1783.0
582.470947 77.0
582.620178 90.0
582.716919 85.0
582.905701 59.0
583.06604 224.0
583.126404 211.0
583.359619 311288.0
583.478943 139.0
583.528687 171.0
583.576538 173.0
583.741943 61.0
583.81897 174.0
583.893494 136.0
583.948669 107.0
584.000549 82.0
584.061157 107.0
584.097168 125.0
584.139221 297.0
584.183777 307.0
584.363037 112001.0
584.51593 190.0
584.610413 162.0
584.660095 82.0
584.709717 128.0
584.779541 128.0
584.851074 100.0
584.907043 108.0
584.93927 130.0
585.029602 77.0
585.112305 103.0
585.1698 103.0
585.366821 22592.0
585.464233 72.0
585.592896 112.0
585.659546 123.0
585.789307 62.0
585.834656 82.0
586.092529 104.0
586.16394 62.0
586.366577 3067.0
586.553345 70.0
586.917542 60.0
587.160278 63.0
587.231567 64.0
587.388855 158.0
587.434692 73.0
587.586792 87.0
587.854797 121.0
587.910461 75.0
588.760742 63.0
599.322876 742.0
600.333862 437.0
601.340027 119.0
635.073853 60.0
636.713684 65.0
637.368896 69.0
640.134583 59.0
640.368774 289.0
641.266296 104.0
641.364014 4157.0
641.839844 60.0
642.361877 1357.0
642.573242 78.0
642.688965 95.0
642.719788 113.0
642.871338 76.0
643.006775 74.0
643.054504 275.0
643.116028 309.0
643.379944 349520.0
643.539368 214.0
643.615723 125.0
643.710205 91.0
643.811401 178.0
643.869629 111.0
643.944092 69.0
643.98877 97.0
644.061646 91.0
644.113037 180.0
644.151001 190.0
644.203674 557.0
644.383179 132192.0
644.649475 177.0
644.725342 174.0
644.78363 89.0
644.836975 129.0
644.910034 79.0
644.991638 87.0
645.057739 181.0
645.169067 108.0
645.386536 29251.0
645.578735 82.0
645.651733 99.0
645.844727 59.0
645.877991 76.0
645.983887 124.0
646.049194 73.0
646.123291 59.0
646.264343 104.0
646.388245 3204.0
646.616516 71.0
647.394958 339.0
647.513733 74.0
647.625183 62.0
647.742615 85.0
647.924988 113.0
648.001587 68.0
648.063171 64.0
648.237549 82.0
648.857361 128.0
649.692139 60.0
659.342224 596.0
660.277649 60.0
660.35376 298.0
661.348145 82.0
854.73053 70.0
1426.185425 74.0
END IONS

BEGIN IONS
PEPMASS=643.382
TITLE=CCMSLIB00005465425
SPECTRUMID=CCMSLIB00005465425
COMPOUND_NAME="(3R,5R,7R,8R,9S,10S,12S,13R,14S,17R)-17-((R)-7-acetoxy-6-(acetoxymethyl)heptan-2-yl)-12-hydroxy-10,13-dimethylhexadecahydro-1H-cyclopenta[a]phenanthrene-3,7-diyl diacetate"
ADDUCT=[M+Na]1+
ION_MODE=positive
SMILES=CC(=O)OCC(CCCC(C)C1CCC2C3C(OC(C)=O)CC4CC(OC(C)=O)CCC4(C)C3CC(O)C12C)COC(C)=O
COLLISION_ENERGY=37.0
MS_MANUFACTURER=Bruker Daltonics
95.086807 127.0
96.090637 62.0
97.10128 117.0
98.97821 113.0
105.071312 284.0
106.077736 76.0
107.064087 65.0
107.085915 587.0
109.071503 65.0
109.103348 937.0
110.105301 104.0
111.121635 173.0
116.988815 148.0
117.075981 120.0
118.067612 68.0
119.089928 163.0
120.091331 92.0
121.102638 245.0
123.116364 258.0
125.095016 185.0
127.113235 68.0
131.085678 209.0
133.101395 146.0
135.118927 343.0
136.124542 113.0
137.132568 124.0
138.827377 97.0
141.054611 62.0
143.084869 257.0
143.111023 64.0
144.084396 66.0
145.101273 729.0
146.111389 133.0
147.116913 845.0
148.124649 172.0
149.132553 390.0
153.13324 81.0
155.084946 178.0
157.100677 530.0
159.116974 724.0
160.120926 386.0
161.098633 94.0
161.13385 658.0
163.147766 179.0
164.147446 65.0
165.090454 61.0
165.128036 80.0
167.113007 64.0
169.104385 286.0
171.114532 242.0
172.119995 136.0
173.133759 623.0
173.370255 88.0
174.138947 138.0
175.146072 234.0
179.141174 72.0
181.097473 74.0
183.11644 275.0
184.117355 66.0
185.086975 85.0
185.131866 554.0
186.139801 107.0
187.149719 367.0
189.168716 141.0
197.133194 409.0
198.138931 83.0
199.150269 621.0
200.149933 395.0
201.164597 413.0
201.494156 77.0
202.166214 71.0
203.18013 142.0
209.132858 275.0
211.147278 829.0
212.152573 80.0
213.164078 863.0
214.168716 134.0
215.180481 335.0
216.111877 172.0
216.183258 274.0
217.121292 88.0
218.165024 62.0
219.142746 65.0
221.120331 107.0
222.104767 79.0
223.147064 159.0
225.166885 332.0
226.173691 78.0
227.180161 566.0
228.152985 81.0
228.18576 148.0
229.161987 176.0
229.19841 68.0
231.209381 66.0
232.217041 66.0
235.206009 66.0
236.152817 75.0
237.167603 99.0
237.184006 116.0
239.179108 351.0
240.179825 104.0
241.201248 250.0
242.077026 66.0
242.142151 76.0
242.200195 166.0
243.180298 63.0
244.212601 69.0
251.179901 680.0
252.188171 256.0
253.196091 2584.0
254.198807 1072.0
255.210983 1220.0
256.213226 321.0
257.196167 84.0
257.221771 180.0
259.245392 167.0
261.158295 110.0
265.19577 198.0
266.198517 97.0
267.217102 236.0
268.214203 164.0
269.221619 193.0
270.160553 173.0
270.213776 70.0
270.236115 77.0
270.656158 364.0
270.768463 104.0
271.171783 102.0
273.182739 75.0
273.223022 151.0
278.651001 64.0
279.160767 580.0
279.209961 702.0
279.663483 194.0
280.16098 68.0
280.209442 85.0
281.227875 865.0
282.229675 250.0
283.235657 73.0
285.180542 74.0
286.176514 64.0
286.510406 151.0
287.664459 66.0
288.172394 80.0
288.668427 119.0
290.685242 61.0
291.195862 85.0
293.222412 181.0
295.23822 122.0
296.24823 149.0
297.248322 76.0
299.191406 64.0
299.234772 111.0
300.164001 581.0
300.507812 64.0
300.672699 234.0
301.170593 109.0
302.022278 70.0
305.245758 86.0
307.24234 193.0
308.255798 76.0
309.255768 95.0
311.205505 87.0
313.216125 1465.0
314.221039 611.0
315.20459 97.0
315.233856 249.0
316.230438 140.0
319.378845 71.0
320.231384 103.0
321.252411 347.0
322.254181 87.0
325.252594 89.0
327.227051 147.0
329.205994 75.0
329.243683 150.0
332.223267 68.0
333.231384 81.0
335.271851 67.0
337.245605 92.0
339.22879 126.0
341.251923 297.0
342.259064 65.0
343.259735 66.0
347.253571 90.0
353.317627 95.0
354.25 115.0
355.268524 129.0
359.256958 126.0
361.288116 261.0
362.269623 72.0
363.305725 1983.0
364.032501 67.0
364.307526 670.0
365.306824 366.0
366.314423 135.0
367.262451 96.0
376.251434 141.0
379.294342 147.0
381.234924 113.0
381.317657 556.0
382.316284 234.0
389.257385 108.0
391.286987 139.0
401.28067 76.0
403.291504 67.0
404.294525 87.0
411.213196 80.0
415.282166 83.0
418.763947 65.0
421.308838 370.0
423.266266 118.0
423.325531 4126.0
424.288788 217.0
424.327179 1662.0
425.332947 752.0
426.331299 234.0
431.233582 69.0
431.578735 84.0
439.316284 135.0
440.100586 74.0
441.334198 1021.0
442.342346 293.0
443.325378 95.0
445.300598 179.0
447.769836 67.0
449.048889 69.0
461.300507 1171.0
462.253021 61.0
462.301056 502.0
463.153046 71.0
463.217438 65.0
463.317444 11009.0
464.32135 2891.0
465.323334 568.0
466.313904 77.0
467.275421 77.0
468.926483 62.0
472.711365 73.0
479.288452 108.0
480.287476 139.0
481.335968 280.0
483.345795 1621.0
484.256378 64.0
484.348969 974.0
485.350281 1530.0
486.305786 85.0
486.35672 494.0
498.291016 62.0
501.361725 332.0
502.352386 161.0
503.317383 175.0
504.329468 97.0
509.27121 62.0
515.384827 63.0
520.345642 71.0
521.187256 110.0
521.324158 12897.0
522.26825 281.0
522.326355 4281.0
522.48053 72.0
523.112061 76.0
523.33905 75642.0
523.425598 121.0
523.576965 92.0
524.046204 77.0
524.159363 98.0
524.342041 23981.0
524.629456 65.0
525.196899 69.0
525.346313 4920.0
526.345032 606.0
539.315247 224.0
540.323486 69.0
540.586914 67.0
541.309509 62.0
543.350525 72.0
544.371887 83.0
545.374084 414.0
546.381775 162.0
557.296204 106.0
563.33606 441.0
564.337463 125.0
565.352356 203.0
566.35321 96.0
567.312744 117.0
567.357971 233.0
571.362976 64.0
575.104187 65.0
577.152405 67.0
580.367065 124.0
580.92804 62.0
581.168274 166.0
581.34491 33614.0
581.477661 113.0
582.153931 77.0
582.196838 86.0
582.348633 11359.0
582.673523 86.0
582.713318 78.0
582.979797 129.0
583.079041 239.0
583.172241 434.0
583.360535 270782.0
583.557312 123.0
583.613342 155.0
583.682434 129.0
583.746094 132.0
583.813843 115.0
583.881165 119.0
583.951904 79.0
583.995361 66.0
584.078918 120.0
584.190857 296.0
584.364319 91317.0
584.509277 74.0
584.550781 72.0
584.591614 99.0
584.646179 110.0
584.796509 101.0
584.866943 65.0
585.128296 165.0
585.201355 181.0
585.240051 136.0
585.367554 19593.0
585.453796 101.0
585.514465 78.0
585.587463 109.0
585.686401 81.0
585.859253 98.0
585.931274 62.0
586.36969 2632.0
586.948608 64.0
587.316589 83.0
587.377258 163.0
587.793701 86.0
587.828125 88.0
587.940979 64.0
588.191711 69.0
588.37439 62.0
588.507141 72.0
588.747864 93.0
588.854797 101.0
595.625122 65.0
599.324097 464.0
600.325745 282.0
601.323303 85.0
604.704712 63.0
616.30896 66.0
628.400635 70.0
634.907043 72.0
640.371033 84.0
640.706055 64.0
640.76593 111.0
641.142273 69.0
641.365967 31584.0
641.705688 69.0
642.172791 145.0
642.37085 10541.0
642.653442 72.0
642.714661 63.0
642.779663 206.0
642.896973 62.0
642.946228 68.0
643.042297 226.0
643.140137 316.0
643.381897 296376.0
643.512085 98.0
643.674561 162.0
643.761108 73.0
643.811279 83.0
643.917114 146.0
644.011597 122.0
644.078857 91.0
644.149902 133.0
644.38562 113799.0
644.54126 167.0
644.635193 123.0
644.750305 92.0
644.894165 79.0
644.981506 115.0
645.08551 69.0
645.137878 61.0
645.183167 141.0
645.238342 109.0
645.388611 24644.0
645.538513 142.0
645.593628 81.0
645.628906 65.0
645.685974 111.0
645.74231 63.0
645.800293 98.0
645.845703 83.0
645.920654 85.0
646.218567 74.0
646.260498 117.0
646.2948 147.0
646.391235 3637.0
646.486572 70.0
646.735352 73.0
646.85614 77.0
646.896606 76.0
647.382935 207.0
647.672913 88.0
647.850159 75.0
647.906921 102.0
648.080872 108.0
648.163025 148.0
648.623535 65.0
659.346436 619.0
660.36322 251.0
673.332458 62.0
719.360474 89.0
843.025391 76.0
END IONS

BEGIN IONS
PEPMASS=643.382
TITLE=CCMSLIB00005465458
SPECTRUMID=CCMSLIB00005465458
COMPOUND_NAME="(3R,5R,7R,8R,9S,10S,12S,13R,14S,17R)-17-((R)-7-acetoxy-6-(acetoxymethyl)heptan-2-yl)-12-hydroxy-10,13-dimethylhexadecahydro-1H-cyclopenta[a]phenanthrene-3,7-diyl diacetate"
ADDUCT=[M+Na]1+
ION_MODE=positive
SMILES=CC(=O)OCC(CCCC(C)C1CCC2C3C(OC(C)=O)CC4CC(OC(C)=O)CCC4(C)C3CC(O)C12C)COC(C)=O
COLLISION_ENERGY=37.0
MS_MANUFACTURER=Bruker Daltonics
95.085472 129.0
96.093559 97.0
97.102715 95.0
98.976562 73.0
105.071182 101.0
107.088577 332.0
109.102562 603.0
110.106903 194.0
116.985657 66.0
119.087479 243.0
121.100334 206.0
123.081596 73.0
123.118904 314.0
125.097984 123.0
126.078171 96.0
127.11702 129.0
128.067276 61.0
129.070816 113.0
131.085922 408.0
133.105591 252.0
134.106216 81.0
135.116638 202.0
137.1353 113.0
143.088455 372.0
144.089554 67.0
145.10289 661.0
146.102081 101.0
147.11734 502.0
148.074326 72.0
148.122864 262.0
149.135941 207.0
151.149475 63.0
153.00383 113.0
153.119217 71.0
155.088699 170.0
157.103714 464.0
158.107941 121.0
159.118103 408.0
161.098145 68.0
161.13501 560.0
162.137466 181.0
163.147446 238.0
165.16449 84.0
167.096756 92.0
168.104233 117.0
169.103653 162.0
171.11528 477.0
173.107193 100.0
173.133621 150.0
175.147964 240.0
177.164688 212.0
178.634003 79.0
183.120209 339.0
184.11702 85.0
185.133865 386.0
186.133514 98.0
187.145996 302.0
188.155899 120.0
189.170258 223.0
190.161224 69.0
191.179123 82.0
194.09581 71.0
195.121918 117.0
195.144852 62.0
197.131332 428.0
198.143127 78.0
199.149231 694.0
200.158173 183.0
201.160034 374.0
202.175079 111.0
203.186081 116.0
209.128326 164.0
211.149414 623.0
212.15181 185.0
213.162781 785.0
214.167526 236.0
215.17955 376.0
216.181519 202.0
217.202377 70.0
223.148056 312.0
224.147903 103.0
225.17009 292.0
227.181915 354.0
228.151703 140.0
228.184814 62.0
229.155365 71.0
229.193649 267.0
237.159012 133.0
238.169876 101.0
239.173676 336.0
241.16452 72.0
241.19278 191.0
242.201096 71.0
243.177689 82.0
244.182892 67.0
246.217545 64.0
249.144745 80.0
249.179428 89.0
249.649185 64.0
251.179657 801.0
252.183609 154.0
253.195282 1841.0
254.197632 699.0
255.20697 1022.0
256.210876 209.0
257.223328 125.0
258.159515 107.0
259.190094 92.0
259.625061 69.0
264.200165 64.0
265.196198 145.0
267.213318 388.0
268.213715 105.0
269.149231 108.0
269.198364 156.0
269.227661 231.0
270.194916 97.0
271.212799 114.0
272.24115 96.0
273.187164 197.0
277.22641 73.0
278.157501 108.0
278.660614 78.0
279.165009 207.0
279.205872 209.0
279.659607 89.0
280.213043 188.0
281.169006 64.0
281.224945 979.0
282.175049 79.0
282.227112 439.0
283.207672 65.0
283.238525 76.0
284.002747 70.0
291.181458 69.0
293.231354 287.0
295.241028 123.0
296.253387 110.0
297.254456 81.0
300.172028 69.0
307.243256 259.0
308.240936 95.0
309.252991 72.0
310.260498 77.0
311.20636 102.0
311.257904 61.0
313.215393 984.0
314.217987 479.0
315.237183 190.0
319.244537 68.0
321.18457 66.0
321.258911 328.0
323.248993 63.0
325.260468 104.0
327.227173 88.0
329.257751 110.0
330.249939 153.0
336.233032 110.0
337.186646 74.0
339.681274 87.0
341.245392 197.0
342.252472 163.0
343.265991 207.0
349.237885 80.0
357.276031 67.0
361.285767 243.0
362.290009 102.0
363.302124 2263.0
364.306763 904.0
365.311493 441.0
367.266754 162.0
376.193817 65.0
381.313385 351.0
382.314026 95.0
382.349182 64.0
383.303864 93.0
384.291382 106.0
395.29068 148.0
397.528625 66.0
403.293823 234.0
404.291534 78.0
421.310852 331.0
422.302155 65.0
423.192413 61.0
423.324036 3551.0
424.328644 1712.0
425.330719 744.0
426.34024 92.0
437.050537 64.0
439.328674 137.0
441.303894 139.0
441.334747 310.0
442.338013 162.0
443.341553 101.0
459.272217 63.0
461.300751 1553.0
462.260956 101.0
462.306396 773.0
463.316742 12605.0
464.319885 3293.0
465.327118 517.0
466.317261 97.0
469.64035 70.0
479.308838 82.0
481.331238 310.0
482.327454 278.0
483.350067 774.0
484.349518 780.0
485.287659 79.0
485.357422 515.0
486.352448 237.0
497.283997 91.0
503.308044 276.0
504.325317 233.0
505.320587 196.0
521.323547 14012.0
522.178406 73.0
522.227234 90.0
522.3255 5381.0
522.935181 70.0
523.111511 72.0
523.191162 108.0
523.338745 56728.0
523.522217 63.0
523.606201 65.0
523.879639 62.0
524.08252 77.0
524.11969 72.0
524.160889 67.0
524.260437 504.0
524.343018 18424.0
524.906555 70.0
525.241089 61.0
525.346191 4020.0
526.348999 338.0
527.356628 133.0
533.790466 71.0
539.315979 100.0
544.369812 75.0
545.33197 78.0
545.382812 92.0
546.206787 66.0
546.370605 70.0
559.546082 71.0
563.336731 559.0
564.343933 215.0
565.351562 104.0
566.374207 92.0
567.372925 69.0
575.378357 73.0
575.644836 74.0
580.972656 75.0
581.197205 135.0
581.344604 35909.0
581.541626 65.0
581.956055 99.0
582.111328 92.0
582.348145 12189.0
582.552063 81.0
582.589722 85.0
582.884766 90.0
583.017517 82.0
583.084656 187.0
583.159729 354.0
583.360107 192614.0
583.495056 133.0
583.548279 65.0
583.646667 68.0
583.718628 74.0
583.75647 102.0
583.802612 111.0
583.840454 92.0
583.921997 121.0
584.009399 69.0
584.059326 73.0
584.136169 294.0
584.363525 66752.0
584.510559 96.0
584.550903 76.0
584.596252 82.0
584.660339 94.0
584.729614 91.0
584.806458 135.0
584.937744 65.0
585.195068 89.0
585.36731 14590.0
585.481079 77.0
585.528381 97.0
585.590881 67.0
585.717773 123.0
586.080566 82.0
586.371399 1969.0
586.660645 64.0
587.365723 100.0
587.414368 89.0
587.898254 66.0
589.733765 82.0
599.283691 72.0
599.321289 191.0
600.332886 159.0
628.164795 65.0
640.358887 84.0
641.185852 84.0
641.366821 33484.0
641.491638 70.0
641.759033 61.0
641.911682 91.0
642.191406 176.0
642.265137 269.0
642.368652 11646.0
642.478699 77.0
642.528259 78.0
642.949524 92.0
642.996521 98.0
643.115967 184.0
643.163696 255.0
643.381531 202334.0
643.52887 102.0
643.74408 81.0
643.805786 76.0
643.893921 133.0
644.010437 130.0
644.157471 149.0
644.231262 348.0
644.384338 77025.0
644.528076 163.0
644.57605 82.0
644.670532 135.0
644.712402 91.0
645.008057 63.0
645.075073 108.0
645.241394 88.0
645.387878 16989.0
645.897522 71.0
646.108948 75.0
646.309265 70.0
646.388977 2576.0
646.714111 76.0
647.191101 77.0
647.321655 101.0
647.400574 304.0
647.956787 85.0
659.347473 159.0
660.337036 84.0
666.40625 66.0
1396.327759 68.0
1628.120605 66.0
END IONS

BEGIN IONS
PEPMASS=612.333
TITLE=CCMSLIB00005465574
SPECTRUMID=CCMSLIB00005465574
COMPOUND_NAME="2-((4R)-N-benzyl-4-((3R,5S,7S,9S,10S,13R,14S,17R)-3,7-dihydroxy-10,13-dimethylhexadecahydro-1H-cyclopenta[a]phenanthren-17-yl)pentanamido)ethane-1-sulfonic acid"
ADDUCT=[M+Na]1+
ION_MODE=positive
SMILES=CC(CCC(=O)N(CCS(=O)(=O)O)Cc1ccccc1)C1CCC2C3C(O)CC4CC(O)CCC4(C)C3CCC12C
COLLISION_ENERGY=37.0
MS_MANUFACTURER=Bruker Daltonics
96.092072 67.0
109.100113 73.0
119.083969 70.0
120.091454 72.0
123.126724 71.0
126.019638 229.0
131.052002 67.0
145.09996 79.0
145.985153 218.0
147.121582 146.0
148.002625 581.0
149.108002 76.0
149.133621 201.0
150.136185 81.0
159.112656 93.0
161.132904 202.0
163.115372 91.0
173.133041 175.0
175.112259 147.0
175.148331 441.0
176.152344 70.0
177.127319 338.0
178.130417 81.0
185.135162 78.0
188.152878 96.0
191.142365 87.0
199.152115 115.0
201.165543 692.0
202.169769 107.0
213.162201 68.0
215.139664 67.0
215.174271 378.0
216.068436 4263.0
216.185165 236.0
217.072495 668.0
217.158173 112.0
218.06778 430.0
219.070114 128.0
225.165436 98.0
227.18129 71.0
229.199478 118.0
236.027573 80.0
238.049957 34762.0
239.052948 4048.0
239.17778 136.0
240.048538 900.0
241.045013 161.0
243.171127 79.0
243.214264 184.0
256.058289 76.0
258.06723 76.0
297.254791 78.0
298.111877 462.0
311.273712 152.0
321.256561 255.0
322.260437 105.0
339.266479 1111.0
340.267395 155.0
345.051392 74.0
345.507538 68.0
352.168823 130.0
354.160339 91.0
362.251068 70.0
378.174957 146.0
391.006287 73.0
392.189972 280.0
420.209717 93.0
434.119751 78.0
440.08017 82.0
440.312988 68.0
442.125732 92.0
446.128662 84.0
446.233856 107.0
448.152802 81.0
460.13504 92.0
486.259369 229.0
487.256805 71.0
496.191406 86.0
508.372681 93.0
510.185638 94.0
517.176086 69.0
554.327026 977.0
555.271851 111.0
555.338013 473.0
556.332214 489.0
557.345642 140.0
576.314941 723.0
577.304688 231.0
578.31543 123.0
592.139526 85.0
592.276794 3260.0
593.279663 1604.0
593.441895 67.0
594.277588 740.0
594.313538 619.0
595.285828 352.0
596.270691 191.0
597.267761 80.0
597.31311 88.0
609.246033 83.0
610.288757 1836.0
611.295044 782.0
612.282715 270.0
612.330688 820.0
613.274109 130.0
613.33075 498.0
614.334534 194.0
617.313232 82.0
628.297302 756.0
629.306946 189.0
630.260498 97.0
630.296631 120.0
631.294922 91.0
633.295288 76.0
646.311279 82.0
END IONS

BEGIN IONS
PEPMASS=629.366
TITLE=CCMSLIB00005465823
SPECTRUMID=CCMSLIB00005465823
COMPOUND_NAME="(3R,6R)-6-((3R,5R,7R,8R,9S,10S,12S,13R,14S,17R)-3,7-diacetoxy-12-hydroxy-10,13-dimethylhexadecahydro-1H-cyclopenta[a]phenanthren-17-yl)heptane-1,3-diyl diacetate"
ADDUCT=[M+Na]1+
ION_MODE=positive
SMILES=CC(=O)OCCC(CCC(C)C1CCC2C3C(OC(C)=O)CC4CC(OC(C)=O)CCC4(C)C3CC(O)C12C)OC(C)=O
COLLISION_ENERGY=37.0
MS_MANUFACTURER=Bruker Daltonics
95.085037 860.0
96.090965 91.0
97.099823 145.0
98.977547 183.0
102.114937 54.0
105.06942 538.0
107.083061 385.0
109.1008 414.0
111.08036 55.0
112.656296 65.0
113.094666 123.0
116.988403 102.0
117.069427 341.0
119.086433 312.0
120.089172 80.0
121.075653 72.0
121.101631 620.0
122.10675 174.0
123.11618 356.0
125.133904 137.0
129.069702 117.0
131.082748 463.0
132.089783 112.0
133.100159 741.0
134.099777 104.0
134.994019 135.0
135.077927 57.0
135.114639 935.0
136.117569 80.0
137.092514 69.0
137.128174 151.0
138.134201 61.0
141.067963 89.0
143.085052 352.0
144.086655 155.0
145.100082 1311.0
146.101639 479.0
147.082642 99.0
147.116287 1092.0
147.17366 56.0
148.118362 196.0
149.130493 920.0
150.136353 220.0
151.151031 71.0
152.149643 88.0
153.007874 174.0
155.085922 161.0
157.073822 78.0
157.102554 696.0
158.106094 111.0
159.116913 1794.0
159.998245 64.0
160.117996 263.0
161.096939 115.0
161.131653 741.0
162.132812 77.0
163.113556 60.0
163.147888 190.0
165.164444 58.0
167.081207 81.0
169.09935 366.0
170.074051 55.0
170.10054 72.0
171.116592 690.0
172.100586 69.0
173.132492 1454.0
174.133331 118.0
174.167892 67.0
175.108719 92.0
175.14975 378.0
176.157623 100.0
176.999649 57.0
177.162552 97.0
177.626587 52.0
179.173767 67.0
181.119781 98.0
183.114395 661.0
184.104034 58.0
184.126785 55.0
185.133789 953.0
186.130997 247.0
187.148804 558.0
188.151962 269.0
189.125824 68.0
189.162262 570.0
190.16568 158.0
191.142654 62.0
193.132477 53.0
195.112411 163.0
197.13002 755.0
198.136795 127.0
199.147049 1484.0
200.151154 390.0
201.16391 853.0
202.164719 77.0
203.098358 68.0
203.141098 125.0
203.17276 198.0
204.141525 58.0
207.136566 183.0
209.128815 336.0
210.135895 141.0
211.146332 1826.0
212.152527 452.0
213.163528 1271.0
214.16806 515.0
214.202881 64.0
215.179337 888.0
216.183014 398.0
217.153641 59.0
217.180511 222.0
218.185623 139.0
220.168503 52.0
221.195541 62.0
223.148148 221.0
224.154968 148.0
225.161697 1140.0
226.165039 257.0
227.145462 84.0
227.177139 1284.0
228.127686 72.0
228.182297 246.0
228.629852 77.0
229.11142 57.0
229.154617 134.0
229.189178 221.0
230.184479 130.0
232.21286 62.0
233.637833 60.0
234.143005 62.0
236.323517 71.0
237.167603 191.0
237.9841 82.0
238.175568 175.0
239.177795 1748.0
240.123245 68.0
240.177567 333.0
241.193939 1085.0
242.147552 198.0
242.197906 388.0
242.64389 132.0
243.171951 147.0
243.206665 208.0
244.148468 106.0
244.209686 54.0
245.146454 81.0
245.215393 69.0
246.22316 58.0
247.171432 75.0
249.183578 162.0
251.096222 64.0
251.143799 120.0
251.178162 1514.0
251.527328 58.0
251.646484 67.0
252.065964 56.0
252.182693 373.0
252.613708 65.0
253.150665 197.0
253.193604 3843.0
254.140732 122.0
254.198105 1468.0
255.207458 1722.0
256.172455 61.0
256.21106 784.0
257.186523 240.0
257.214386 374.0
258.198547 65.0
258.228058 67.0
259.165039 122.0
259.203888 109.0
260.175354 57.0
260.654541 73.0
261.186707 83.0
263.151733 690.0
263.194458 73.0
263.650726 229.0
264.149719 93.0
264.654205 65.0
265.195526 297.0
265.640686 67.0
266.079865 64.0
266.215759 55.0
267.20929 855.0
268.211487 199.0
268.821564 56.0
269.211426 173.0
271.166748 68.0
271.204468 121.0
271.237366 147.0
272.156067 1023.0
272.246552 67.0
272.651398 364.0
273.158722 65.0
273.185974 285.0
274.185699 194.0
275.178223 86.0
276.195709 79.0
276.438019 67.0
277.193634 111.0
277.608826 65.0
279.208588 514.0
280.105133 61.0
280.214539 172.0
280.244537 52.0
281.165161 94.0
281.225037 1748.0
281.666901 131.0
282.230835 630.0
282.677368 65.0
283.201355 52.0
283.229675 128.0
284.157318 55.0
284.233643 66.0
285.220764 111.0
287.198792 74.0
289.212128 64.0
291.158081 62.0
293.127777 65.0
293.15744 246.0
293.225769 430.0
293.661682 195.0
294.158295 95.0
294.225464 113.0
295.239899 345.0
296.25238 119.0
297.243469 114.0
299.188599 101.0
299.236725 160.0
300.20401 271.0
301.215668 646.0
302.220917 190.0
303.223633 220.0
304.244934 52.0
305.173401 61.0
305.222961 78.0
307.239166 243.0
308.240692 208.0
309.252014 54.0
311.203918 92.0
313.212341 1700.0
314.219543 707.0
315.22995 954.0
316.2276 452.0
317.204468 159.0
317.236115 111.0
321.259094 160.0
323.902527 55.0
325.245911 90.0
325.271454 69.0
327.235718 258.0
328.232025 131.0
329.238708 150.0
332.161682 56.0
332.22171 76.0
333.241455 65.0
334.248932 92.0
335.213379 52.0
335.822723 52.0
337.214905 67.0
341.246765 468.0
342.250397 358.0
343.255676 93.0
344.263275 96.0
349.288055 4114.0
350.290436 1585.0
351.292664 854.0
352.2966 110.0
353.214752 61.0
353.257141 52.0
354.244843 131.0
355.245819 108.0
361.230896 144.0
367.295624 536.0
368.266449 139.0
368.299835 162.0
370.314667 78.0
373.230927 68.0
379.268738 67.0
383.294617 67.0
385.304108 223.0
386.302429 138.0
387.255707 89.0
387.319336 53.0
389.298676 112.0
390.275848 78.0
390.420654 53.0
391.305603 65.0
393.322205 65.0
397.288788 68.0
397.319458 64.0
398.314087 54.0
399.329773 142.0
409.219635 140.0
409.309204 9195.0
410.312164 3693.0
411.03418 58.0
411.2276 68.0
411.31546 2697.0
412.320465 292.0
413.304199 56.0
417.298828 73.0
425.338898 52.0
427.322113 690.0
428.264465 112.0
428.320282 248.0
431.284302 60.0
432.282501 56.0
434.05838 83.0
434.33783 79.0
435.327515 87.0
435.87207 54.0
437.300995 56.0
447.249969 57.0
447.32251 199.0
448.211304 77.0
449.184601 90.0
449.300659 20413.0
450.30484 5987.0
451.125092 80.0
451.306519 917.0
452.305481 99.0
453.266937 104.0
454.26535 64.0
455.794983 56.0
461.211609 72.0
465.253815 61.0
467.205048 52.0
467.306366 62.0
469.239044 57.0
469.330933 1495.0
470.265961 57.0
470.331482 948.0
471.27774 105.0
471.334198 1426.0
472.286438 64.0
472.339844 299.0
473.229126 56.0
473.344482 116.0
476.804138 60.0
481.596497 57.0
483.275116 66.0
485.27533 68.0
487.358337 152.0
488.341339 106.0
491.312042 185.0
492.321106 75.0
493.379333 63.0
495.35025 101.0
503.382446 69.0
503.96286 64.0
504.56073 75.0
506.933746 59.0
507.233459 55.0
507.310608 58.0
508.311371 85.0
509.078705 92.0
509.131439 266.0
509.322174 122000.0
509.447144 78.0
509.489868 66.0
509.648468 58.0
509.872498 81.0
509.936676 63.0
509.989594 76.0
510.0271 145.0
510.097565 75.0
510.175873 151.0
510.326172 39141.0
510.470947 97.0
510.503082 77.0
510.56366 73.0
510.808502 52.0
510.878906 64.0
510.949341 73.0
511.06427 54.0
511.191925 64.0
511.328796 7125.0
512.272827 66.0
512.331665 637.0
512.409973 53.0
513.030396 58.0
513.187622 57.0
513.249084 64.0
513.331726 93.0
513.431885 52.0
513.46759 75.0
515.282715 68.0
515.539856 67.0
515.665527 57.0
525.160889 61.0
525.286743 322.0
526.292175 200.0
526.801575 74.0
527.277649 53.0
527.330872 66.0
529.356201 126.0
530.353394 159.0
531.353638 514.0
532.361633 133.0
535.240723 69.0
535.95752 73.0
536.356689 65.0
543.299011 210.0
546.416443 55.0
548.66803 61.0
550.427368 58.0
551.339539 480.0
552.152771 57.0
552.34021 153.0
552.798523 62.0
553.326843 60.0
559.498047 78.0
560.979736 71.0
561.281372 60.0
561.485657 63.0
561.56073 68.0
562.029358 65.0
562.182312 81.0
563.042725 66.0
563.574951 79.0
563.818909 80.0
564.723511 65.0
566.351501 69.0
566.841125 76.0
566.917664 54.0
567.321106 132.0
567.426697 73.0
567.606812 75.0
567.801636 52.0
567.900818 62.0
568.149963 118.0
568.253601 76.0
568.295044 56.0
568.365051 105.0
568.566223 113.0
568.756042 91.0
568.885864 80.0
568.962097 62.0
568.992859 97.0
569.039917 128.0
569.12793 381.0
569.343933 408486.0
569.494324 144.0
569.669495 87.0
569.708435 111.0
569.790222 215.0
569.859863 169.0
569.899658 106.0
569.978088 199.0
570.064453 151.0
570.121155 339.0
570.347107 135663.0
570.495178 120.0
570.561157 193.0
570.59552 141.0
570.634033 103.0
570.78595 85.0
570.937317 134.0
571.016907 143.0
571.097534 112.0
571.189758 186.0
571.349548 27897.0
571.585754 57.0
571.650696 77.0
571.706543 119.0
571.793579 157.0
571.850281 77.0
571.953857 87.0
571.999878 96.0
572.120728 99.0
572.164246 63.0
572.240906 112.0
572.354065 3552.0
572.4729 81.0
572.536743 53.0
572.766541 126.0
572.914001 52.0
573.108032 112.0
573.249695 52.0
573.308838 74.0
573.363342 269.0
573.495117 94.0
573.560608 111.0
573.616455 80.0
573.65094 71.0
573.697632 70.0
573.734436 74.0
573.810791 120.0
573.921692 77.0
574.380615 89.0
574.727783 54.0
575.369995 59.0
576.989136 59.0
585.309021 386.0
586.315247 313.0
586.799255 52.0
588.370483 61.0
589.295105 122.0
589.341064 81.0
591.220825 55.0
604.308044 64.0
610.358948 61.0
620.675232 92.0
620.900574 65.0
622.14801 71.0
623.063599 57.0
624.372864 57.0
624.507874 60.0
624.655029 64.0
625.737244 57.0
626.018188 52.0
626.115112 91.0
626.227966 59.0
626.404663 62.0
626.473755 70.0
626.608521 58.0
627.148193 54.0
627.34668 153.0
628.189087 87.0
628.257507 111.0
628.318481 74.0
628.352112 57.0
628.413818 105.0
628.60968 162.0
628.686707 72.0
628.845886 54.0
628.912231 100.0
628.945129 115.0
629.014954 210.0
629.091675 191.0
629.365112 421072.0
629.504883 107.0
629.545776 148.0
629.656067 181.0
629.773254 82.0
629.828186 236.0
629.87738 154.0
629.937439 280.0
629.983521 194.0
630.068481 203.0
630.143433 370.0
630.368591 159147.0
630.497437 69.0
630.548096 116.0
630.627319 63.0
630.660156 95.0
630.717896 138.0
630.750793 137.0
630.817505 150.0
630.903198 60.0
630.961182 133.0
631.001465 91.0
631.062317 65.0
631.121704 117.0
631.172058 136.0
631.371216 34397.0
631.59375 79.0
631.626953 105.0
631.690125 121.0
631.83844 75.0
631.903381 115.0
632.028442 63.0
632.11261 80.0
632.156189 74.0
632.225952 156.0
632.285461 147.0
632.373047 4143.0
632.485229 103.0
632.626465 53.0
632.697815 80.0
632.747681 57.0
632.818298 79.0
632.935303 82.0
633.004395 57.0
633.04425 63.0
633.148376 66.0
633.312866 102.0
633.378662 383.0
633.468628 74.0
633.538025 63.0
633.619812 94.0
633.716125 86.0
633.766296 55.0
633.805603 56.0
633.90033 120.0
633.980835 154.0
634.173096 62.0
634.687988 63.0
634.854431 81.0
634.891174 71.0
635.068787 79.0
635.153564 57.0
645.325562 700.0
646.334045 292.0
647.328247 72.0
659.873047 55.0
705.35321 57.0
954.017883 63.0
960.078308 52.0
1070.81897 90.0
END IONS

BEGIN IONS
PEPMASS=617.356
TITLE=CCMSLIB00005465991
SPECTRUMID=CCMSLIB00005465991
COMPOUND_NAME=Tryptophan conjugated cholic acid
ADDUCT=[M+Na]1+
ION_MODE=positive
SMILES=CC(CCC(=O)NC(Cc1c[nH]c2ccccc12)C(=O)O)C1CCC2C3C(O)CC4CC(O)CCC4(C)C3CC(O)C12C
COLLISION_ENERGY=37.0
MS_MANUFACTURER=Bruker Daltonics
75.011185 40.0
76.955673 48.0
77.021568 34.0
87.985489 44.0
99.994064 85.0
106.047096 55.0
115.95726 45.0
117.991936 37.0
120.008568 66.0
125.99128 368.0
128.95166 44.0
130.069901 52.0
142.023621 50.0
146.063858 30.0
159.11618 49.0
167.019684 26.0
167.997833 131.0
170.716339 30.0
184.971146 46.0
185.985901 30.0
186.015335 41.0
186.966324 42.0
187.023911 34.0
187.970261 39.0
188.070572 26.0
192.978012 24.0
204.973419 107.0
205.098663 109.0
206.926147 45.0
206.971405 61.0
207.98114 26.0
208.966507 36.0
209.131439 60.0
211.060516 48.0
212.914368 73.0
214.932205 59.0
214.994553 44.0
215.143295 44.0
224.979065 25.0
225.997726 51.0
227.083252 149.0
227.137817 54.0
227.98938 61.0
228.976379 81.0
229.922165 30.0
230.158936 46.0
230.924133 25.0
232.916626 43.0
239.928589 24.0
241.939621 44.0
243.941711 53.0
245.940201 115.0
245.984131 35.0
246.920898 26.0
247.933502 112.0
247.995468 43.0
248.919403 93.0
248.978256 79.0
249.16153 52.0
249.96312 58.0
249.989517 27.0
250.6129 20.0
254.926895 88.0
256.934052 45.0
265.936218 39.0
266.925079 35.0
267.940399 161.0
268.926056 132.0
268.987183 153.0
269.57016 24.0
269.939087 168.0
269.998566 81.0
270.990601 31.0
271.927765 46.0
274.928406 151.0
285.951935 111.0
287.944458 223.0
288.016846 29.0
288.934906 108.0
289.942719 346.0
290.011261 155.0
290.932709 106.0
290.987549 39.0
291.938965 303.0
292.893005 29.0
292.919922 44.0
294.935211 31.0
296.243835 38.0
305.969055 33.0
306.948914 41.0
307.955872 43.0
309.953186 106.0
310.996582 121.0
311.94339 246.0
312.007324 31.0
313.484955 21.0
314.491272 26.0
320.073608 33.0
329.957764 146.0
331.00592 51.0
331.952148 544.0
332.927856 71.0
332.998749 34.0
333.952332 82.0
335.242737 40.0
337.014404 56.0
337.250702 103.0
346.306763 31.0
349.96286 222.0
350.94516 76.0
351.013153 75.0
351.125305 38.0
351.961548 305.0
352.017975 28.0
352.942535 225.0
353.95639 101.0
354.94342 25.0
356.957977 25.0
367.217346 37.0
368.951721 44.0
370.131287 39.0
370.903656 31.0
370.967163 51.0
371.970245 110.0
373.962921 319.0
374.028198 85.0
374.946381 40.0
376.937775 42.0
389.125366 35.0
391.923767 26.0
391.968719 69.0
393.970154 820.0
394.953339 69.0
395.247406 47.0
395.973328 131.0
396.622833 29.0
396.958405 88.0
398.863556 37.0
398.979828 34.0
411.981812 54.0
413.269318 351.0
413.978729 498.0
414.267517 113.0
414.574829 25.0
414.953674 85.0
415.910431 31.0
415.96875 691.0
416.233734 27.0
416.953888 68.0
418.970978 39.0
423.303345 47.0
425.943207 36.0
426.966827 33.0
430.29306 67.0
431.287842 78.0
432.885315 44.0
433.979462 79.0
434.976349 44.0
436.96991 36.0
437.315491 24.0
442.096802 41.0
445.78598 31.0
448.916229 21.0
455.989227 733.0
456.320679 23.0
457.922638 35.0
457.983215 313.0
462.214996 39.0
470.983826 65.0
473.442657 40.0
473.991821 71.0
475.99231 887.0
477.001068 21.0
477.814362 28.0
477.848297 40.0
477.98819 1477.0
478.967712 109.0
479.97168 44.0
483.512054 24.0
485.030426 41.0
494.00647 135.0
495.091736 47.0
496.00238 112.0
496.976379 51.0
498.991577 29.0
500.511169 28.0
513.94751 50.0
516.578369 22.0
518.010742 36.0
519.995911 181.0
523.341309 44.0
524.834351 44.0
535.320496 25.0
539.878296 27.0
540.007751 4049.0
540.1073 55.0
540.940796 28.0
541.005371 55.0
541.349304 48.0
542.339111 24.0
543.850647 26.0
544.353394 20.0
552.034302 24.0
554.213074 44.0
558.017334 1394.0
558.162659 56.0
560.028687 60.0
562.253845 22.0
571.336914 58.0
574.092529 40.0
577.670349 30.0
581.310486 24.0
584.66925 53.0
589.299866 66.0
599.356079 118.0
599.81958 24.0
600.340637 35.0
601.65387 26.0
602.026306 96.0
608.132935 24.0
613.210144 28.0
614.665649 33.0
617.358154 3362.0
618.272949 24.0
618.360229 965.0
618.475037 36.0
618.532654 42.0
618.828979 30.0
619.261108 35.0
619.371399 120.0
619.776245 27.0
619.830566 33.0
620.007324 31.0
620.180298 45.0
620.363586 126.0
621.025635 36.0
621.188232 33.0
621.374207 32.0
621.795715 30.0
621.920532 116.0
622.029114 25134.0
622.138672 68.0
622.18103 25.0
622.275757 22.0
622.316101 38.0
622.369629 58.0
622.51886 24.0
622.897949 21.0
623.029541 227.0
623.326538 75.0
623.461975 29.0
623.687439 47.0
623.848816 24.0
624.192993 33.0
624.798645 22.0
625.867615 22.0
625.940186 20.0
626.021423 38.0
626.51593 28.0
626.608337 33.0
626.785583 31.0
627.072815 43.0
633.316345 152.0
634.244629 26.0
634.322205 134.0
635.324463 41.0
635.366211 24.0
635.903259 26.0
636.369202 62.0
636.958923 47.0
641.243652 27.0
641.436157 36.0
647.745178 20.0
649.472046 41.0
651.363342 30.0
673.63501 22.0
679.333923 24.0
695.947937 29.0
719.057495 52.0
812.871948 56.0
817.358887 40.0
879.038452 65.0
915.335449 26.0
938.146423 23.0
953.555969 46.0
967.787781 53.0
987.380859 46.0
1001.386658 37.0
1037.3125 30.0
1043.210327 37.0
1047.13269 23.0
1062.093018 36.0
1064.334106 26.0
1072.164062 24.0
1073.82019 41.0
1077.907471 31.0
1086.281006 28.0
1087.416992 22.0
1092.269165 43.0
1093.616821 30.0
1326.87146 24.0
END IONS

BEGIN IONS
PEPMASS=610.335
TITLE=CCMSLIB00006583515
SPECTRUMID=CCMSLIB00006583515
COMPOUND_NAME=LDOPA-aMCA
ADDUCT=[M+Na]1+
ION_MODE=positive
SMILES=CC(CCC(=O)NC(Cc1ccc(O)c(O)c1)C(=O)O)C1CCC2C3C(O)C(O)C4CC(O)CCC4(C)C3CCC12C
COLLISION_ENERGY=37.0
MS_MANUFACTURER=Bruker Daltonics
77.037186 36.0
85.062706 25.0
91.04966 28.0
95.082939 62.0
100.072563 33.0
104.060867 28.0
105.069145 25.0
107.083969 31.0
111.040398 37.0
121.06546 28.0
121.099022 28.0
123.085434 30.0
123.121056 33.0
128.050461 34.0
129.065369 36.0
133.103104 27.0
134.109497 27.0
135.117981 42.0
137.100739 33.0
139.038849 61.0
140.044724 24.0
145.102875 37.0
147.117096 152.0
151.11174 54.0
152.072144 631.0
153.083008 38.0
154.082977 33.0
155.081818 26.0
155.726761 30.0
158.857574 29.0
159.117264 132.0
161.096786 28.0
161.135345 62.0
163.04068 24.0
163.116867 39.0
164.117493 32.0
165.130508 30.0
169.062592 24.0
171.118622 39.0
174.054855 50.0
175.112793 28.0
175.150009 68.0
177.130081 79.0
179.000595 24.0
179.105621 46.0
180.063385 34.0
181.052856 304.0
181.559341 24.0
183.079956 161.0
187.147873 23.0
189.12529 32.0
191.144852 34.0
198.078537 1550.0
199.082596 218.0
199.110504 24.0
199.149567 65.0
200.087769 33.0
200.156326 25.0
201.020645 37.0
201.121872 28.0
201.161652 20.0
203.093582 29.0
209.131668 25.0
210.142838 41.0
211.032547 31.0
212.148239 24.0
213.167648 77.0
215.180878 40.0
220.060806 1074.0
221.068573 40.0
223.159851 39.0
225.167938 24.0
227.106491 37.0
227.142639 33.0
229.036377 52.0
229.166336 60.0
239.098022 26.0
241.158798 23.0
241.19841 27.0
243.172714 30.0
245.158356 36.0
249.174591 67.0
252.195282 24.0
253.155121 25.0
254.026001 27.0
256.175873 22.0
256.216309 25.0
263.186493 31.0
267.169952 21.0
268.104797 31.0
277.195374 45.0
280.116577 23.0
281.075439 38.0
281.194702 23.0
284.209167 24.0
287.335388 40.0
293.227203 26.0
295.211334 35.0
295.23761 24.0
296.212006 22.0
306.30658 35.0
306.807007 39.0
309.270447 33.0
310.258728 26.0
313.566254 22.0
315.220184 28.0
319.241028 134.0
320.244415 65.0
321.48407 37.0
324.248413 24.0
325.246857 39.0
327.229248 30.0
335.23172 22.0
337.252777 267.0
337.932465 27.0
338.256165 106.0
339.272217 27.0
346.164429 23.0
351.252106 29.0
353.256042 23.0
354.972443 29.0
355.261871 131.0
357.716583 22.0
372.074432 32.0
374.204926 23.0
382.117493 38.0
386.197021 21.0
387.253448 25.0
412.287628 283.0
413.147186 36.0
413.269684 877.0
413.733276 25.0
414.273071 229.0
415.247406 21.0
415.275299 73.0
419.317261 22.0
421.088531 23.0
428.262573 23.0
429.225342 21.0
430.299103 56.0
431.274597 103.0
432.28125 41.0
436.254425 21.0
439.238861 23.0
441.061005 20.0
446.252319 20.0
454.25882 71.0
457.101929 24.0
460.34082 30.0
470.275452 22.0
472.306 25.0
476.185272 38.0
488.342194 30.0
494.339752 24.0
506.323364 48.0
507.326355 24.0
512.279175 21.0
516.269348 29.0
517.23645 41.0
520.260437 35.0
521.079102 25.0
521.53595 26.0
522.269409 21.0
523.279663 22.0
528.27356 21.0
529.275452 51.0
530.242065 24.0
534.3172 185.0
535.320068 74.0
536.359985 22.0
537.327698 23.0
546.285645 53.0
547.30835 56.0
548.303955 21.0
548.332153 38.0
549.311462 40.0
550.289856 37.0
552.223022 22.0
552.334534 363.0
553.33606 89.0
562.264771 37.0
563.261719 20.0
564.297607 142.0
565.302551 84.0
566.2948 28.0
567.351624 20.0
570.350708 61.0
573.302917 21.0
573.363586 30.0
574.310059 43.0
575.320374 63.0
582.3125 59.0
590.274658 107.0
591.276672 79.0
591.349976 27.0
592.327148 241.0
592.489075 43.0
593.24707 24.0
593.318054 179.0
594.272949 57.0
594.356445 38.0
597.310181 21.0
605.64563 20.0
606.251526 68.0
607.273193 23.0
607.355408 22.0
607.420959 61.0
608.287781 722.0
608.387512 42.0
608.427307 42.0
608.68396 32.0
609.292725 223.0
609.407898 56.0
609.775879 22.0
610.140198 45.0
610.334412 15068.0
610.742859 43.0
610.969727 43.0
611.015564 39.0
611.227234 57.0
611.339661 5564.0
611.549255 22.0
611.971619 31.0
612.025818 20.0
612.081421 23.0
612.183899 29.0
612.221497 32.0
612.341492 1311.0
612.506348 21.0
613.348877 57.0
613.60321 23.0
617.307617 27.0
621.518738 23.0
624.287842 20.0
626.299805 1337.0
627.071472 32.0
627.147156 36.0
627.193726 21.0
627.303162 641.0
627.423462 25.0
628.30249 202.0
630.286682 45.0
642.269897 31.0
644.310486 509.0
644.57135 28.0
645.308899 246.0
646.21106 22.0
646.312683 37.0
648.306763 27.0
661.248657 20.0
662.316406 85.0
742.346375 23.0
746.375122 22.0
902.211548 26.0
923.072144 26.0
962.512451 31.0
983.696655 28.0
1006.408508 24.0
1019.523621 39.0
1021.769287 25.0
1022.37793 22.0
1023.212158 36.0
1023.87561 27.0
1024.324585 23.0
1024.630249 30.0
1028.199951 34.0
1031.363892 20.0
1040.0271 33.0
1050.106934 28.0
1050.552979 30.0
1058.638794 26.0
1065.744141 20.0
1066.259155 27.0
1072.94873 38.0
1082.771606 20.0
END IONS

BEGIN IONS
PEPMASS=617.356
TITLE=CCMSLIB00006583542
SPECTRUMID=CCMSLIB00006583542
COMPOUND_NAME=Trp-aMCA
ADDUCT=[M+Na]1+
ION_MODE=positive
SMILES=CC(CCC(=O)NC(Cc1c[nH]c2ccccc12)C(=O)O)C1CCC2C3C(O)C(O)C4CC(O)CCC4(C)C3CCC12C
COLLISION_ENERGY=37.0
MS_MANUFACTURER=Bruker Daltonics
81.066452 27.0
88.60807 22.0
89.354027 36.0
95.059555 22.0
96.005081 20.0
105.981667 28.0
107.086349 31.0
122.991592 27.0
123.624107 31.0
123.997635 22.0
124.107613 28.0
125.990959 89.0
130.06543 33.0
132.082535 30.0
132.101059 32.0
136.089966 24.0
147.119812 87.0
154.020081 24.0
156.078323 49.0
157.099686 27.0
159.091904 103.0
160.077087 30.0
163.121964 36.0
168.005295 48.0
169.102936 34.0
173.134964 23.0
174.064636 23.0
180.078262 26.0
181.075043 23.0
182.058304 62.0
182.090607 31.0
188.075714 175.0
189.0784 35.0
202.043655 32.0
204.975296 56.0
205.099548 126.0
205.136597 35.0
206.973099 23.0
210.055832 166.0
211.056625 24.0
214.016632 25.0
217.172424 32.0
219.126846 29.0
221.966965 34.0
225.16803 23.0
226.076706 31.0
227.08374 1042.0
227.187988 27.0
227.650742 21.0
228.099106 209.0
229.099884 22.0
230.155899 29.0
243.201874 37.0
244.235168 25.0
245.037628 25.0
245.14006 20.0
245.929626 29.0
246.922485 39.0
246.981735 43.0
247.941833 26.0
248.978973 58.0
249.995316 23.0
250.999588 22.0
253.195847 22.0
260.754303 28.0
266.920532 26.0
268.920197 31.0
269.001465 31.0
269.932373 57.0
270.921417 28.0
272.950989 35.0
274.068665 24.0
274.936249 81.0
277.196198 34.0
287.950134 94.0
289.949493 97.0
290.006927 27.0
290.937134 44.0
290.98465 29.0
291.940552 67.0
292.92514 71.0
296.244873 27.0
306.940216 29.0
308.933624 21.0
309.957672 73.0
311.202087 26.0
311.94931 54.0
315.994965 24.0
316.945007 40.0
319.071167 25.0
319.237091 39.0
329.969574 44.0
331.00824 27.0
331.958008 71.0
332.911896 28.0
332.943726 38.0
333.956604 23.0
334.931641 37.0
335.966888 33.0
337.24054 21.0
338.257385 46.0
351.957001 93.0
353.142426 29.0
353.960754 105.0
355.275024 21.0
371.967987 50.0
373.172699 20.0
373.983734 79.0
383.016693 39.0
391.97049 45.0
393.972931 197.0
395.960541 59.0
398.969299 23.0
413.264618 204.0
413.981781 148.0
414.272095 77.0
414.994263 30.0
415.972382 120.0
422.29364 32.0
423.222382 28.0
427.563141 22.0
428.270599 22.0
431.282013 61.0
431.318726 29.0
432.277374 29.0
433.993988 44.0
435.963654 23.0
436.960663 27.0
439.423035 27.0
444.230499 22.0
451.295197 27.0
452.314911 22.0
455.990967 300.0
457.912994 22.0
457.991241 62.0
465.20816 29.0
475.903656 27.0
475.999451 280.0
477.989166 567.0
478.941986 26.0
478.986847 25.0
490.253082 25.0
490.288452 26.0
493.279694 29.0
494.00293 62.0
503.406616 21.0
507.26944 25.0
513.340271 76.0
520.00177 84.0
529.406738 21.0
537.741699 21.0
538.467834 34.0
538.625305 54.0
539.944824 24.0
540.005371 820.0
540.292175 20.0
540.977905 30.0
541.010071 36.0
541.34082 39.0
542.312073 21.0
542.371826 39.0
543.343628 60.0
545.329834 24.0
546.955994 22.0
550.31665 38.0
557.627197 26.0
558.01593 361.0
558.289978 41.0
559.030823 49.0
559.352112 22.0
560.33667 31.0
560.369385 37.0
571.312195 21.0
572.357605 21.0
576.294739 21.0
577.349548 21.0
577.948853 32.0
578.329163 28.0
579.308838 31.0
580.086975 35.0
580.384277 33.0
582.355103 36.0
589.31781 30.0
590.340942 22.0
594.321045 20.0
596.823425 25.0
598.313599 20.0
599.349243 161.0
600.350525 76.0
601.351685 21.0
601.627319 20.0
602.009216 40.0
607.386536 48.0
614.125549 28.0
615.311401 87.0
615.798645 20.0
616.337524 69.0
616.450134 23.0
616.552795 30.0
617.15741 25.0
617.203918 61.0
617.356262 8495.0
618.005371 22.0
618.207397 25.0
618.359375 3852.0
618.494568 41.0
618.86499 22.0
618.928101 23.0
619.108582 24.0
619.152527 23.0
619.229309 29.0
619.361023 640.0
620.33136 22.0
620.371887 135.0
621.434814 20.0
621.653381 21.0
622.029907 5878.0
622.20752 21.0
622.365662 28.0
622.456543 20.0
622.921936 47.0
623.028442 140.0
626.384155 27.0
629.272034 23.0
633.321777 159.0
633.502014 27.0
634.330566 48.0
635.368774 46.0
649.292175 23.0
651.331238 39.0
652.335266 25.0
675.36499 20.0
688.439575 20.0
689.377258 22.0
902.213074 42.0
910.740356 32.0
945.980591 36.0
954.22522 24.0
989.737671 21.0
992.994446 25.0
1021.473083 21.0
1029.465332 20.0
1033.309937 29.0
1033.627319 23.0
1038.547241 22.0
1038.729248 23.0
1039.983276 24.0
1040.572388 23.0
1045.369263 26.0
1049.83313 29.0
1076.608398 31.0
1082.804321 21.0
1569.875122 25.0
END IONS

BEGIN IONS
PEPMASS=610.335
TITLE=CCMSLIB00006583595
SPECTRUMID=CCMSLIB00006583595
COMPOUND_NAME=LDOPA-aMCA
ADDUCT=[M+Na]1+
ION_MODE=positive
SMILES=CC(CCC(=O)NC(Cc1ccc(O)c(O)c1)C(=O)O)C1CCC2C3C(O)C(O)C4CC(O)CCC4(C)C3CCC12C
COLLISION_ENERGY=37.0
MS_MANUFACTURER=Bruker Daltonics
78.6399 33.0
79.052826 36.0
95.08725 115.0
107.051018 44.0
107.084755 29.0
109.024689 24.0
111.079773 70.0
112.087547 47.0
115.091728 41.0
116.070328 23.0
119.046814 24.0
119.086716 73.0
121.10392 22.0
122.108528 30.0
123.036613 22.0
123.083183 32.0
124.224503 26.0
130.099243 31.0
135.045792 137.0
137.096771 26.0
139.04129 121.0
142.08255 35.0
145.093521 22.0
146.059006 32.0
146.105072 30.0
147.113754 50.0
149.138351 29.0
151.114014 36.0
152.072235 1214.0
153.073181 111.0
157.023483 29.0
158.091812 63.0
159.077377 38.0
159.116821 91.0
161.134857 123.0
163.107468 21.0
163.140854 33.0
166.09285 28.0
167.121689 23.0
173.087387 32.0
173.134659 113.0
174.056488 25.0
175.005875 22.0
175.117126 92.0
175.150711 45.0
176.154526 58.0
177.12883 147.0
178.135529 29.0
179.000992 31.0
180.065186 39.0
181.052322 418.0
181.10376 23.0
182.054245 91.0
183.058167 64.0
185.134903 62.0
186.139572 20.0
187.066956 25.0
187.105591 25.0
188.075729 73.0
189.128708 26.0
191.141281 67.0
192.145676 21.0
196.873154 23.0
198.077972 2207.0
198.352875 29.0
198.650909 21.0
199.083847 139.0
199.151352 103.0
200.08049 47.0
200.156601 39.0
201.097153 39.0
202.522247 23.0
203.041534 27.0
203.14389 29.0
205.119003 24.0
206.00856 33.0
206.084549 53.0
207.115707 22.0
209.13295 66.0
210.068817 32.0
210.136459 22.0
211.029556 61.0
211.153366 62.0
212.036484 28.0
213.128052 37.0
213.162628 80.0
215.028046 29.0
215.145599 28.0
217.165756 28.0
219.112473 213.0
220.060959 1646.0
220.608994 23.0
221.061691 146.0
223.151413 74.0
225.168259 43.0
227.144501 24.0
228.188126 22.0
229.042923 21.0
231.176422 32.0
232.181488 36.0
238.109848 23.0
239.073639 26.0
239.182144 79.0
241.168701 48.0
241.198715 55.0
247.05162 25.0
249.165268 28.0
251.180481 34.0
253.18956 27.0
255.17131 24.0
256.182526 25.0
257.106415 24.0
259.168488 20.0
267.221313 36.0
271.204041 53.0
277.204742 31.0
280.117004 84.0
282.139984 40.0
284.083191 21.0
289.356689 36.0
293.216858 21.0
295.252014 38.0
299.656067 40.0
308.248047 29.0
309.265564 26.0
319.245087 295.0
320.247437 71.0
325.264465 31.0
333.223755 35.0
334.168701 53.0
335.174347 22.0
335.24408 41.0
337.251648 508.0
338.253448 105.0
339.245331 29.0
351.232758 21.0
355.268585 184.0
356.111816 22.0
356.275421 70.0
357.060669 36.0
371.890625 27.0
373.282318 31.0
374.204834 23.0
375.572144 36.0
379.166718 28.0
386.183411 25.0
395.262756 36.0
401.025513 28.0
411.226288 24.0
412.288116 277.0
413.269531 1128.0
414.26889 229.0
415.270752 53.0
415.922852 30.0
416.609924 24.0
418.108948 22.0
421.205017 32.0
425.196594 29.0
426.235962 36.0
427.226746 29.0
428.253937 38.0
429.282104 28.0
430.295166 34.0
431.134766 21.0
431.275238 125.0
432.163818 28.0
432.275787 34.0
434.294312 34.0
436.242401 36.0
438.243896 44.0
442.213104 24.0
443.269623 28.0
446.259338 54.0
451.319183 24.0
462.291199 23.0
463.538452 34.0
468.196014 20.0
481.239502 24.0
486.2612 23.0
488.319397 28.0
490.283783 25.0
492.35318 24.0
498.263031 23.0
499.635864 34.0
501.751465 85.0
506.312195 47.0
507.318146 40.0
508.312683 39.0
508.340271 33.0
509.24649 44.0
509.282257 20.0
509.343719 27.0
513.227112 24.0
514.16449 25.0
516.265991 20.0
517.295166 26.0
519.069641 22.0
522.217468 26.0
522.322754 21.0
527.315369 23.0
528.223389 25.0
528.278076 58.0
529.243347 21.0
529.287842 25.0
530.23291 25.0
533.290405 20.0
534.257568 25.0
534.322327 255.0
535.325256 114.0
536.334412 23.0
538.024902 23.0
542.234253 20.0
544.244568 27.0
545.273987 20.0
546.298157 110.0
547.304382 46.0
547.425232 21.0
548.298828 49.0
549.317871 33.0
550.276611 20.0
552.332642 167.0
553.327454 57.0
554.243286 33.0
554.347534 26.0
555.346558 48.0
560.269226 21.0
562.271851 35.0
564.297485 182.0
565.301758 117.0
566.49585 36.0
569.991333 24.0
570.229553 29.0
572.189819 29.0
572.283875 25.0
573.270325 65.0
574.306152 48.0
575.310242 47.0
580.26123 20.0
582.31073 73.0
583.306091 69.0
585.246338 30.0
586.242493 21.0
590.276611 207.0
591.277283 156.0
591.391785 20.0
592.326111 409.0
593.33136 139.0
594.265442 26.0
594.334839 34.0
595.318176 23.0
604.395935 23.0
606.253357 95.0
606.46759 54.0
607.404175 111.0
607.764954 22.0
608.2948 1109.0
608.413818 46.0
608.681946 31.0
608.802307 59.0
609.001892 25.0
609.292908 346.0
609.384705 454.0
610.014587 35.0
610.195557 61.0
610.334351 16128.0
610.504517 29.0
610.765686 35.0
610.788696 34.0
610.950195 26.0
611.111755 20.0
611.250549 56.0
611.337524 6391.0
611.453491 31.0
611.959351 20.0
611.992859 28.0
612.255615 58.0
612.341736 1073.0
612.453552 32.0
612.515625 24.0
613.281738 26.0
613.338501 227.0
614.327881 42.0
616.885498 28.0
620.091125 27.0
620.37384 25.0
621.359802 21.0
621.960876 27.0
624.27301 36.0
626.301819 2194.0
626.497009 22.0
626.811768 28.0
627.233887 25.0
627.30426 725.0
627.380188 36.0
628.315186 186.0
629.2854 20.0
629.322327 89.0
629.376892 20.0
630.301514 85.0
632.420166 27.0
633.457764 26.0
640.258362 26.0
642.271423 42.0
642.435486 30.0
644.307739 755.0
645.31488 353.0
646.329102 78.0
647.328796 57.0
648.289795 30.0
650.3125 29.0
656.30658 21.0
662.305664 37.0
663.319885 28.0
664.473022 20.0
674.345093 34.0
854.504883 20.0
972.737732 21.0
977.763489 31.0
983.171814 24.0
989.807739 22.0
995.200317 21.0
996.027283 23.0
996.802063 23.0
999.484558 25.0
1007.709961 25.0
1012.217773 30.0
1012.51123 29.0
1013.151917 33.0
1015.594482 31.0
1021.03656 21.0
1021.859741 21.0
1029.308716 22.0
1033.53894 27.0
1037.671021 38.0
1038.542603 20.0
1041.11853 20.0
1042.203125 21.0
1047.894409 23.0
1051.621216 44.0
1058.460449 32.0
1064.628784 34.0
1069.403687 25.0
1077.907471 34.0
1087.159424 24.0
1414.329346 23.0
1415.149414 21.0
1442.562378 38.0
1498.384644 24.0
1559.426514 26.0
END IONS

BEGIN IONS
PEPMASS=617.356
TITLE=CCMSLIB00006583632
SPECTRUMID=CCMSLIB00006583632
COMPOUND_NAME=Trp-aMCA
ADDUCT=[M+Na]1+
ION_MODE=positive
SMILES=CC(CCC(=O)NC(Cc1c[nH]c2ccccc12)C(=O)O)C1CCC2C3C(O)C(O)C4CC(O)CCC4(C)C3CCC12C
COLLISION_ENERGY=37.0
MS_MANUFACTURER=Bruker Daltonics
83.857758 31.0
96.003304 44.0
120.077454 27.0
121.015472 25.0
123.118973 26.0
125.995644 78.0
129.067673 24.0
130.088455 26.0
132.083344 32.0
133.098724 20.0
136.068909 27.0
146.060684 78.0
147.118164 22.0
150.038055 29.0
155.046738 73.0
157.103638 32.0
159.094223 59.0
159.116119 46.0
161.136902 43.0
162.134689 48.0
166.085648 53.0
171.112442 32.0
177.023911 22.0
177.12915 33.0
177.201584 33.0
182.059708 209.0
182.090958 47.0
182.971695 35.0
183.064362 34.0
183.438843 25.0
183.958557 29.0
185.13031 39.0
188.011475 30.0
188.073135 358.0
189.075684 108.0
199.087692 21.0
199.134918 34.0
200.078857 67.0
202.985611 32.0
205.0979 308.0
206.1073 82.0
206.971359 23.0
210.056274 255.0
213.131378 27.0
215.154068 25.0
217.159363 37.0
223.149963 21.0
225.116867 35.0
226.081467 31.0
226.124359 24.0
227.08313 1820.0
227.146393 29.0
227.181396 23.0
227.962601 28.0
228.091827 158.0
229.085007 24.0
230.090454 26.0
232.923065 23.0
239.190887 34.0
241.154343 24.0
241.947906 30.0
243.951965 36.0
244.179947 20.0
246.926773 92.0
247.932877 24.0
247.999008 21.0
248.975266 54.0
250.915527 43.0
253.186768 39.0
254.197189 25.0
261.173706 45.0
267.941345 30.0
268.985565 28.0
269.939545 26.0
271.938477 20.0
279.230591 30.0
285.955231 21.0
287.949829 60.0
289.020477 23.0
289.943939 88.0
290.003265 24.0
290.20752 30.0
291.943481 44.0
292.922028 20.0
294.185699 26.0
296.150116 32.0
309.950928 34.0
310.931885 36.0
311.951477 62.0
315.879364 24.0
319.242188 40.0
325.263153 67.0
329.958618 43.0
331.960815 95.0
333.946136 36.0
337.253326 94.0
338.261963 35.0
346.177063 21.0
349.970032 25.0
350.945251 31.0
351.964569 92.0
352.950348 69.0
353.955475 47.0
354.279968 28.0
355.267883 72.0
370.966034 24.0
373.878113 27.0
373.958252 51.0
381.219391 20.0
391.980438 23.0
393.974823 260.0
395.967163 63.0
405.146088 25.0
411.259338 33.0
411.964325 22.0
411.995087 28.0
412.299377 46.0
413.27121 344.0
413.973389 134.0
414.276489 129.0
415.965729 71.0
429.266571 38.0
430.244263 20.0
431.192383 21.0
431.283264 108.0
434.974243 28.0
435.986206 26.0
439.303375 34.0
454.172882 24.0
455.992249 128.0
457.251984 24.0
457.985596 56.0
464.203583 43.0
472.27533 21.0
475.991913 302.0
476.247131 26.0
477.203156 28.0
477.988647 486.0
479.700562 20.0
487.350037 30.0
488.296906 23.0
494.029266 22.0
498.20813 20.0
501.66391 22.0
502.354004 24.0
503.346405 37.0
511.237762 44.0
511.279327 23.0
511.69928 20.0
512.273071 33.0
512.981079 23.0
513.364014 31.0
514.356018 23.0
515.356262 28.0
518.019531 29.0
520.002258 46.0
521.088806 23.0
526.31842 35.0
527.320435 52.0
528.307861 42.0
534.323059 22.0
538.678894 22.0
539.305359 22.0
539.685059 32.0
539.950867 28.0
540.009399 832.0
540.264893 29.0
540.832825 33.0
540.90448 23.0
540.995239 76.0
541.336914 34.0
542.337646 81.0
543.279114 37.0
543.441345 25.0
544.362976 20.0
551.79657 30.0
553.256165 20.0
555.347595 21.0
556.355103 35.0
557.197754 22.0
557.277893 26.0
558.016846 427.0
558.290955 43.0
559.285583 21.0
559.357727 85.0
560.35498 51.0
561.343506 40.0
569.32959 27.0
570.278625 22.0
570.44812 20.0
571.31311 116.0
572.326599 25.0
574.327942 27.0
577.360779 46.0
581.347839 20.0
582.339783 42.0
585.296387 20.0
587.407043 26.0
589.330505 76.0
590.31781 22.0
590.349243 42.0
591.724365 26.0
597.270264 21.0
597.319458 111.0
598.303833 25.0
599.340027 223.0
600.351929 87.0
601.327576 28.0
602.018677 59.0
602.341614 25.0
602.80127 21.0
614.623535 22.0
615.172546 20.0
615.338013 700.0
615.470398 28.0
616.207214 27.0
616.344482 395.0
616.91748 22.0
617.174927 41.0
617.247925 82.0
617.354797 13182.0
617.561035 31.0
617.804016 28.0
618.358765 6304.0
618.490601 41.0
618.723816 37.0
619.208191 31.0
619.362122 1357.0
619.540527 20.0
620.309692 31.0
620.364441 221.0
621.226318 29.0
621.366577 61.0
621.87677 24.0
622.03009 5583.0
622.194336 33.0
622.306274 20.0
622.681702 22.0
622.980896 21.0
623.032166 174.0
623.113647 24.0
624.035034 29.0
624.816833 41.0
625.458313 30.0
631.281799 37.0
633.323303 633.0
634.325684 204.0
634.84021 21.0
635.318176 57.0
635.367798 58.0
644.728027 26.0
649.273926 21.0
651.332947 34.0
652.326294 67.0
653.767822 28.0
655.432983 34.0
669.345215 20.0
692.120422 35.0
698.347351 30.0
814.95459 36.0
852.473511 29.0
889.460999 22.0
905.622192 41.0
990.878845 22.0
999.681763 32.0
999.942505 29.0
1006.414062 30.0
1007.188171 44.0
1028.509033 28.0
1028.658325 24.0
1036.192139 45.0
1038.7323 37.0
1043.218018 59.0
1044.433472 35.0
1044.534424 36.0
1044.789551 25.0
1046.109741 29.0
1048.44519 25.0
1048.985718 34.0
1058.019043 30.0
1064.123413 27.0
1065.875 22.0
1068.546265 21.0
1073.953003 21.0
END IONS

BEGIN IONS
PEPMASS=610.335
TITLE=CCMSLIB00006583688
SPECTRUMID=CCMSLIB00006583688
COMPOUND_NAME=LDOPA-bMCA
ADDUCT=[M+Na]1+
ION_MODE=positive
SMILES=CC(CCC(=O)NC(Cc1ccc(O)c(O)c1)C(=O)O)C1CCC2C3C(O)C(O)C4CC(O)CCC4(C)C3CCC12C
COLLISION_ENERGY=37.0
MS_MANUFACTURER=Bruker Daltonics
86.094353 28.0
88.768944 42.0
90.053223 25.0
97.06427 31.0
102.055389 24.0
112.694939 39.0
113.069397 38.0
119.050453 36.0
121.001457 30.0
135.04686 30.0
136.077484 35.0
139.041428 80.0
140.041412 32.0
143.087997 50.0
145.100433 20.0
147.07872 37.0
147.118088 22.0
148.124359 30.0
151.114685 26.0
152.072739 680.0
153.077148 36.0
155.090088 33.0
157.109497 28.0
159.079056 59.0
160.124619 55.0
160.991745 26.0
161.133865 34.0
166.998322 34.0
171.115646 38.0
174.055969 37.0
175.12265 79.0
175.150223 30.0
177.125031 31.0
180.004318 39.0
181.054214 234.0
183.468018 22.0
191.149933 27.0
192.068146 42.0
197.140182 37.0
198.078506 1236.0
199.080414 70.0
200.626175 22.0
200.701462 21.0
201.096741 32.0
201.169922 47.0
205.096176 37.0
205.124084 29.0
210.047394 25.0
211.032272 123.0
215.089508 34.0
217.154419 27.0
220.009033 22.0
220.061462 617.0
221.063263 58.0
223.065796 28.0
223.153717 27.0
225.16806 20.0
225.86145 20.0
226.172546 27.0
227.187744 27.0
233.028198 26.0
235.177643 29.0
241.193054 22.0
243.180923 44.0
255.02742 31.0
255.17601 46.0
264.077637 36.0
266.199707 38.0
267.171722 29.0
280.12323 26.0
282.211884 24.0
290.634399 22.0
291.204529 25.0
293.582306 20.0
295.038605 35.0
298.828491 28.0
315.199982 25.0
319.243591 109.0
327.261688 60.0
337.254547 95.0
338.253387 41.0
342.132538 31.0
355.271301 108.0
360.188446 23.0
363.196411 41.0
372.180145 26.0
373.313995 36.0
375.105408 33.0
386.204865 31.0
391.305206 37.0
410.19339 21.0
410.243317 25.0
412.288513 173.0
413.193909 21.0
413.269684 550.0
414.272186 199.0
415.27298 58.0
423.998322 42.0
428.260773 32.0
430.296814 25.0
431.283783 163.0
432.278381 37.0
433.065033 28.0
438.144165 20.0
444.318634 23.0
446.25177 35.0
454.285034 34.0
460.275909 25.0
463.229462 23.0
467.05545 32.0
472.276093 37.0
473.31601 34.0
481.216003 40.0
482.774994 39.0
485.753082 48.0
487.356201 25.0
494.265015 28.0
494.359955 29.0
495.328613 36.0
506.313354 32.0
512.360474 29.0
528.284546 35.0
529.993958 30.0
532.018005 20.0
532.358704 26.0
534.284973 25.0
534.320129 28.0
541.32074 28.0
546.284912 92.0
547.292542 81.0
547.377197 63.0
548.325439 65.0
551.248169 20.0
552.232666 26.0
552.281128 37.0
552.335388 82.0
553.332947 90.0
557.341797 25.0
564.305603 53.0
564.365234 33.0
565.306152 48.0
566.342651 21.0
567.337891 21.0
568.28363 26.0
570.364258 28.0
571.337891 31.0
571.75769 36.0
572.280334 35.0
573.267334 51.0
573.596558 20.0
574.274475 24.0
575.374207 20.0
578.800537 24.0
580.272705 21.0
582.298828 26.0
583.339539 24.0
587.815796 24.0
590.283936 210.0
591.276428 39.0
592.269653 30.0
592.327454 168.0
593.204895 32.0
593.326904 97.0
600.311707 87.0
601.321838 55.0
604.24115 24.0
605.657471 21.0
606.046143 28.0
606.109741 22.0
606.264771 29.0
607.407349 133.0
608.216858 22.0
608.292419 500.0
609.296814 175.0
609.38208 122.0
610.139954 48.0
610.334595 12484.0
610.439148 38.0
610.489319 40.0
610.785583 40.0
610.866211 30.0
611.338623 4899.0
611.464539 23.0
611.834839 24.0
611.911682 28.0
612.155457 24.0
612.217773 25.0
612.341919 1104.0
613.331665 194.0
614.042908 22.0
614.275452 36.0
614.305725 35.0
615.526978 25.0
626.296387 369.0
627.304688 168.0
628.310913 45.0
628.575378 25.0
630.296753 26.0
631.319641 27.0
636.467346 21.0
642.290466 27.0
644.300415 154.0
645.306763 20.0
646.316772 43.0
649.307617 23.0
650.310791 21.0
659.267883 22.0
662.189392 26.0
662.307556 116.0
670.357361 29.0
742.866882 32.0
750.381348 23.0
884.03479 20.0
944.518677 24.0
947.413147 27.0
968.622559 20.0
979.1698 28.0
986.928345 23.0
995.331177 24.0
1004.110107 22.0
1011.981567 25.0
1012.840149 20.0
1014.058472 36.0
1015.544373 30.0
1015.616089 20.0
1015.821472 25.0
1023.616821 20.0
1024.385986 33.0
1033.911255 24.0
1037.696533 49.0
1063.201294 22.0
1071.210693 27.0
1073.220825 21.0
1090.010864 28.0
1974.004639 49.0
END IONS

BEGIN IONS
PEPMASS=617.356
TITLE=CCMSLIB00006583716
SPECTRUMID=CCMSLIB00006583716
COMPOUND_NAME=Trp-bMCA
ADDUCT=[M+Na]1+
ION_MODE=positive
SMILES=CC(CCC(=O)NC(Cc1c[nH]c2ccccc12)C(=O)O)C1CCC2C3C(O)C(O)C4CC(O)CCC4(C)C3CCC12C
COLLISION_ENERGY=37.0
MS_MANUFACTURER=Bruker Daltonics
81.065857 48.0
83.086159 62.0
84.042465 40.0
92.057068 30.0
95.082855 27.0
96.003525 109.0
97.007721 41.0
97.075363 69.0
101.070213 36.0
107.084816 20.0
111.08094 26.0
112.088631 97.0
114.102577 274.0
115.051369 36.0
115.08712 144.0
116.46727 20.0
121.102768 23.0
125.095802 38.0
125.991615 92.0
127.089752 25.0
127.99202 26.0
130.050034 59.0
130.065903 64.0
130.097244 40.0
132.079636 59.0
133.760956 31.0
135.116867 61.0
136.087967 25.0
138.068405 444.0
139.070694 54.0
139.099442 38.0
140.085022 159.0
141.084854 58.0
142.063797 32.0
145.098251 24.0
146.060684 122.0
147.116837 27.0
152.072769 68.0
153.072067 23.0
155.045044 43.0
155.092819 29.0
156.078293 157.0
157.115967 28.0
158.094635 89.0
158.380035 30.0
159.065155 27.0
159.093307 548.0
159.116776 80.0
159.828552 39.0
160.160294 43.0
160.294846 21.0
160.45163 27.0
161.13739 66.0
165.057037 53.0
167.14682 21.0
173.13475 80.0
174.363327 28.0
175.152405 44.0
177.107376 32.0
181.078049 185.0
182.057617 273.0
183.088913 164.0
183.11705 36.0
184.07515 135.0
184.110474 393.0
185.129181 24.0
185.955765 22.0
186.126236 358.0
187.130035 78.0
187.151245 53.0
188.017746 36.0
188.073029 1371.0
188.14151 24.0
188.269104 26.0
188.957443 26.0
189.076309 93.0
189.101059 46.0
190.080002 33.0
190.131882 20.0
194.046478 49.0
198.137939 29.0
200.941711 27.0
201.162811 53.0
202.121017 140.0
203.178528 29.0
204.809265 20.0
205.098587 1081.0
206.105164 86.0
206.971039 35.0
207.101746 28.0
208.970337 21.0
209.07608 29.0
209.166733 22.0
210.054306 281.0
210.087997 35.0
210.236282 31.0
211.058075 85.0
212.938705 23.0
213.169418 38.0
215.187408 32.0
215.240524 33.0
223.145737 24.0
224.093124 45.0
224.971191 30.0
225.100235 34.0
225.173798 32.0
226.084961 56.0
226.113861 79.0
227.081436 2016.0
227.131363 43.0
228.088882 231.0
229.092316 24.0
229.134354 192.0
230.115433 60.0
230.926666 22.0
232.985336 24.0
237.169479 31.0
242.159927 25.0
244.182281 25.0
250.911514 45.0
253.199097 23.0
254.932312 51.0
256.189758 37.0
267.182343 22.0
267.953003 29.0
268.415527 30.0
270.099518 85.0
271.9328 25.0
285.952332 68.0
287.946533 26.0
288.941071 27.0
288.978851 24.0
289.943695 44.0
290.925293 39.0
291.94101 49.0
292.943451 34.0
295.23877 24.0
306.396088 29.0
306.950348 27.0
309.957703 46.0
310.031006 28.0
310.251129 23.0
310.996185 35.0
311.947632 29.0
316.946442 24.0
319.244537 88.0
321.16217 26.0
322.086273 33.0
323.274475 58.0
326.268219 20.0
327.95993 24.0
328.683258 33.0
330.997589 22.0
331.953674 86.0
333.959015 40.0
335.235657 22.0
336.952026 28.0
337.257874 112.0
338.255798 43.0
341.288879 82.0
349.129456 27.0
349.207001 24.0
351.961212 115.0
352.031311 54.0
353.95459 53.0
354.926941 27.0
355.263641 94.0
356.276031 27.0
373.976501 60.0
374.958527 55.0
377.158142 29.0
391.973969 73.0
393.970032 191.0
394.05069 27.0
394.273346 34.0
394.959076 63.0
395.266266 25.0
395.970612 79.0
396.960876 22.0
398.321136 25.0
411.235382 22.0
412.291504 104.0
413.132355 22.0
413.266388 654.0
413.97876 107.0
414.017181 49.0
414.277313 85.0
414.970032 37.0
415.273712 21.0
415.974518 182.0
416.294403 29.0
416.95755 68.0
424.288422 45.0
427.832794 37.0
428.249573 23.0
430.29483 33.0
431.216766 38.0
431.278259 164.0
432.22876 23.0
432.293091 34.0
433.288513 36.0
433.98291 28.0
436.051392 27.0
439.245117 21.0
440.260864 28.0
441.230011 27.0
441.259186 26.0
442.29895 33.0
445.833649 25.0
446.049316 25.0
446.202301 25.0
447.240417 24.0
449.312103 25.0
451.331879 45.0
452.249664 20.0
453.226929 29.0
454.271851 31.0
455.990875 172.0
457.993683 40.0
459.982666 20.0
460.235931 24.0
464.280273 35.0
465.233856 22.0
469.362701 41.0
470.238068 109.0
470.389862 28.0
474.014343 40.0
475.996674 227.0
476.324799 42.0
477.942566 27.0
477.990723 361.0
478.992523 30.0
483.372437 21.0
483.60321 26.0
484.378326 36.0
485.319641 22.0
485.386414 32.0
486.286804 25.0
486.374146 87.0
487.352905 219.0
488.36145 54.0
488.554138 21.0
488.928284 48.0
489.360016 24.0
490.291321 28.0
493.343719 95.0
494.01297 41.0
494.273163 24.0
494.351105 22.0
495.374817 29.0
495.991608 23.0
496.266968 49.0
497.243378 46.0
499.283997 25.0
500.290833 29.0
505.35965 24.0
506.395691 34.0
508.464325 21.0
510.283264 24.0
511.370178 417.0
512.362732 127.0
513.298645 31.0
513.345337 66.0
514.237244 29.0
514.30249 33.0
514.352417 79.0
517.276611 32.0
518.314575 26.0
519.335266 28.0
520.002136 23.0
520.334595 25.0
521.356873 25.0
522.271057 23.0
523.922302 47.0
524.266602 23.0
526.381897 28.0
527.002075 28.0
527.251099 48.0
527.312134 506.0
528.320862 143.0
529.184814 42.0
529.325745 125.0
529.374939 890.0
529.440796 24.0
530.380005 171.0
531.35791 67.0
534.284668 31.0
535.283447 31.0
537.346191 45.0
538.016479 31.0
539.28479 33.0
540.010742 929.0
540.27771 50.0
540.420471 22.0
541.015686 57.0
541.342712 62.0
541.992126 23.0
542.301941 26.0
542.345093 51.0
543.309448 34.0
544.353943 21.0
545.363708 65.0
545.583984 22.0
546.370422 24.0
548.288391 28.0
553.30304 39.0
554.30835 26.0
555.360413 182.0
556.356079 64.0
557.296875 32.0
557.39093 56.0
558.014282 220.0
559.355103 214.0
560.354492 119.0
561.298523 37.0
561.346802 94.0
562.285461 54.0
563.138611 20.0
564.336853 26.0
565.40625 34.0
568.439514 22.0
569.306641 25.0
570.311707 33.0
571.323181 414.0
571.69043 34.0
572.321289 112.0
573.100952 35.0
573.311279 35.0
573.366638 363.0
573.433533 25.0
574.366699 164.0
574.831848 23.0
575.370239 23.0
575.640259 23.0
576.292358 27.0
577.358398 32.0
578.288757 20.0
582.241211 21.0
582.536255 37.0
583.37262 59.0
584.297913 24.0
584.39209 21.0
586.298767 27.0
587.276733 22.0
587.318726 29.0
588.243652 23.0
588.329468 20.0
589.048889 23.0
589.335144 71.0
590.337036 33.0
592.833252 23.0
594.344299 24.0
595.735596 27.0
597.311584 79.0
598.423218 32.0
598.913635 39.0
599.019165 31.0
599.342285 175.0
600.340454 44.0
601.314148 25.0
601.393738 67.0
601.922607 26.0
602.415405 34.0
604.311279 29.0
606.127991 24.0
607.340515 25.0
608.678833 23.0
610.386841 24.0
611.309021 21.0
612.197144 30.0
613.020447 26.0
613.232788 25.0
614.767639 44.0
615.188843 20.0
615.30957 772.0
615.635986 22.0
615.808655 25.0
615.892151 34.0
615.940308 22.0
616.128967 25.0
616.31134 444.0
616.445374 31.0
616.741577 28.0
617.127869 36.0
617.206116 46.0
617.355652 24666.0
617.486572 85.0
617.888062 55.0
617.996521 31.0
618.028381 32.0
618.165955 30.0
618.215393 69.0
618.359924 10264.0
618.492554 37.0
618.880066 35.0
618.952881 32.0
619.088867 43.0
619.224243 22.0
619.362427 2284.0
619.899475 23.0
620.219299 33.0
620.366821 369.0
621.177673 29.0
621.337524 60.0
621.417175 41.0
621.562256 33.0
621.673096 44.0
621.851257 36.0
621.951111 54.0
622.02832 5719.0
622.209351 21.0
622.369141 23.0
622.4198 48.0
623.029724 170.0
624.026062 23.0
624.365662 34.0
625.327759 26.0
625.945251 30.0
626.228882 27.0
626.539185 27.0
628.83728 24.0
631.283081 27.0
633.319702 549.0
634.251038 26.0
634.329346 218.0
634.533508 37.0
635.334412 52.0
636.356079 27.0
636.585693 20.0
637.299561 27.0
637.331177 29.0
642.049133 22.0
651.333191 244.0
652.344604 100.0
747.482422 25.0
757.260803 26.0
785.299377 21.0
786.671692 20.0
793.03894 31.0
849.823547 44.0
864.438782 21.0
865.577698 27.0
875.504395 24.0
875.612244 22.0
888.092529 26.0
915.953613 20.0
932.057556 32.0
933.455017 21.0
938.83905 25.0
976.944824 25.0
986.692261 20.0
1003.966248 32.0
1010.455078 20.0
1014.026733 28.0
1019.149597 20.0
1025.706177 37.0
1026.130127 20.0
1028.773193 29.0
1029.436279 31.0
1029.767578 21.0
1037.288086 25.0
1037.467407 30.0
1038.623657 23.0
1040.595825 20.0
1045.664673 25.0
1048.240112 20.0
1055.224121 32.0
1057.895142 21.0
1061.193604 31.0
1061.545288 27.0
1065.406982 27.0
1066.369995 20.0
1067.098511 31.0
1069.152466 22.0
1071.859619 31.0
1384.213013 33.0
END IONS

BEGIN IONS
PEPMASS=610.335
TITLE=CCMSLIB00006583760
SPECTRUMID=CCMSLIB00006583760
COMPOUND_NAME=LDOPA-bMCA
ADDUCT=[M+Na]1+
ION_MODE=positive
SMILES=CC(CCC(=O)NC(Cc1ccc(O)c(O)c1)C(=O)O)C1CCC2C3C(O)C(O)C4CC(O)CCC4(C)C3CCC12C
COLLISION_ENERGY=37.0
MS_MANUFACTURER=Bruker Daltonics
84.079803 33.0
105.069572 22.0
111.050102 28.0
117.067841 20.0
119.04821 24.0
119.086845 35.0
123.082214 43.0
130.0504 24.0
135.045227 38.0
135.116364 27.0
136.050552 34.0
136.924271 30.0
152.073181 225.0
153.070679 36.0
163.045456 26.0
174.054916 24.0
174.107208 28.0
175.117142 49.0
180.06398 27.0
180.978592 24.0
181.050568 236.0
182.05484 72.0
183.077499 25.0
188.071564 40.0
191.144241 45.0
196.06694 35.0
198.078049 734.0
199.083694 33.0
200.085266 26.0
201.167053 23.0
203.028336 24.0
215.147842 28.0
217.080124 33.0
220.059891 342.0
221.064011 34.0
223.12999 37.0
227.142471 34.0
247.033264 33.0
263.161713 28.0
275.203918 36.0
279.142822 25.0
287.200104 20.0
297.217621 25.0
299.55777 39.0
309.252319 29.0
310.263214 20.0
319.250153 36.0
325.261902 23.0
327.25705 20.0
328.240112 29.0
330.113281 25.0
337.256683 113.0
345.029633 25.0
351.167969 28.0
355.024109 20.0
355.266754 54.0
360.192596 40.0
366.239044 24.0
380.159729 32.0
412.134705 26.0
412.281464 125.0
413.268921 303.0
414.270996 96.0
415.272522 32.0
423.240265 21.0
428.261719 24.0
429.241272 28.0
430.309906 26.0
431.282471 140.0
436.169067 28.0
439.186646 22.0
439.349609 29.0
449.282959 23.0
459.182922 29.0
472.306305 27.0
477.305725 24.0
499.266022 26.0
501.365082 26.0
506.318512 38.0
511.195435 22.0
528.282166 45.0
532.304626 22.0
534.318909 95.0
535.979919 28.0
546.285461 39.0
552.321716 31.0
553.344299 39.0
555.276123 23.0
556.370056 27.0
558.008179 26.0
562.264709 27.0
564.245056 20.0
564.291443 78.0
568.276489 30.0
571.358704 22.0
572.157471 29.0
580.268616 29.0
584.329956 25.0
588.369873 21.0
590.297058 65.0
591.293701 22.0
592.157776 66.0
592.279907 29.0
592.322754 139.0
593.276306 30.0
593.327332 24.0
595.823975 33.0
598.408264 34.0
600.332214 27.0
600.918823 32.0
607.349548 20.0
608.283447 281.0
609.143372 27.0
609.294495 101.0
609.384216 95.0
609.86908 33.0
609.931519 33.0
610.146179 45.0
610.335754 10101.0
611.047791 27.0
611.247009 56.0
611.337219 4425.0
611.454346 24.0
611.508972 23.0
611.662354 30.0
612.340393 868.0
612.987488 20.0
613.343384 165.0
614.356079 52.0
615.63739 26.0
625.240234 25.0
626.301941 173.0
626.802063 25.0
627.314209 71.0
644.308655 142.0
645.315308 25.0
662.321411 69.0
663.343872 30.0
666.648071 26.0
849.435364 25.0
932.729431 21.0
944.997192 25.0
954.559998 21.0
965.619324 20.0
983.402222 21.0
995.353149 21.0
1000.642639 24.0
1015.305359 26.0
1029.248413 51.0
1031.673462 28.0
1033.191162 29.0
1036.528076 30.0
1036.973633 20.0
1037.136475 49.0
1038.053101 24.0
1042.218628 28.0
1043.857788 32.0
1057.286377 21.0
1060.115479 20.0
1064.748901 22.0
1099.921753 30.0
END IONS

BEGIN IONS
PEPMASS=617.356
TITLE=CCMSLIB00006583786
SPECTRUMID=CCMSLIB00006583786
COMPOUND_NAME=Trp-bMCA
ADDUCT=[M+Na]1+
ION_MODE=positive
SMILES=CC(CCC(=O)NC(Cc1c[nH]c2ccccc12)C(=O)O)C1CCC2C3C(O)C(O)C4CC(O)CCC4(C)C3CCC12C
COLLISION_ENERGY=37.0
MS_MANUFACTURER=Bruker Daltonics
77.036446 37.0
89.98938 23.0
93.543076 39.0
95.085152 74.0
96.001869 33.0
106.043404 25.0
111.055229 119.0
117.050896 33.0
118.069572 34.0
120.06385 33.0
125.794006 35.0
125.990799 51.0
130.066193 22.0
132.083069 74.0
137.071716 30.0
144.082092 25.0
145.105606 26.0
146.060928 70.0
147.059891 27.0
147.129028 38.0
153.073425 25.0
154.061874 38.0
155.041138 65.0
156.107666 34.0
159.094757 275.0
161.135345 78.0
170.063354 28.0
173.134933 24.0
179.555496 35.0
180.062378 28.0
180.085297 30.0
181.075638 58.0
182.059464 197.0
184.974411 30.0
188.072739 767.0
189.074295 109.0
190.005783 22.0
190.972748 22.0
191.957748 34.0
194.103333 25.0
194.845901 24.0
196.044556 23.0
196.06218 39.0
199.115402 31.0
199.153915 25.0
200.074265 30.0
205.100113 452.0
206.099884 149.0
208.077545 37.0
208.968277 24.0
209.075165 36.0
209.110718 31.0
210.052628 397.0
210.086426 76.0
211.061295 107.0
211.095352 25.0
211.143845 25.0
211.206284 44.0
212.63797 21.0
217.200912 45.0
224.005142 22.0
224.992035 25.0
227.083206 1070.0
228.085266 200.0
228.097412 219.0
228.156158 23.0
229.088242 65.0
229.169037 29.0
229.932526 26.0
243.184875 36.0
243.940002 22.0
244.06601 22.0
245.938522 41.0
246.158615 28.0
247.936722 23.0
252.931061 25.0
264.936676 27.0
265.950745 22.0
266.179291 23.0
267.945343 25.0
270.763458 28.0
276.141357 23.0
277.221313 47.0
279.135284 20.0
285.94931 20.0
286.084259 29.0
287.157227 32.0
289.001465 36.0
289.9505 26.0
290.010895 47.0
290.932007 35.0
292.927307 51.0
295.097931 32.0
295.24054 27.0
301.086365 28.0
307.950592 61.0
308.998749 24.0
309.262543 43.0
309.953033 33.0
310.989655 27.0
311.723907 20.0
311.948303 59.0
313.002991 29.0
316.937439 56.0
318.089111 22.0
319.259521 33.0
325.41864 27.0
328.143433 21.0
329.958374 21.0
330.941803 20.0
331.946564 42.0
331.978516 41.0
332.94577 24.0
334.111359 26.0
337.253418 107.0
338.253815 54.0
348.171112 32.0
349.973389 122.0
351.96402 109.0
352.023315 23.0
352.943604 69.0
353.021362 21.0
355.262604 66.0
356.274353 49.0
363.273651 20.0
368.978973 24.0
373.979797 35.0
374.038025 22.0
375.150909 26.0
375.952362 27.0
391.960297 41.0
392.039307 25.0
393.975006 214.0
395.972107 27.0
398.96756 20.0
409.222992 27.0
411.984802 20.0
412.115326 26.0
412.936676 21.0
413.268738 373.0
413.973633 81.0
414.253693 60.0
415.26413 47.0
415.972565 176.0
418.963776 24.0
430.292755 52.0
431.276337 221.0
432.296875 22.0
433.287506 21.0
433.973419 24.0
442.217285 27.0
447.256683 25.0
451.723785 27.0
453.237 39.0
455.992371 223.0
456.227905 20.0
456.312469 21.0
457.013977 20.0
457.985291 69.0
459.996368 23.0
460.274017 31.0
461.21637 22.0
465.241821 21.0
470.244629 44.0
472.278625 52.0
472.359711 31.0
475.993225 228.0
476.084869 35.0
477.985931 456.0
478.983551 24.0
492.284363 26.0
494.008911 102.0
507.249969 28.0
511.765564 32.0
513.242493 20.0
513.354736 41.0
522.275757 22.0
524.288513 21.0
527.309204 105.0
528.30072 39.0
529.333252 38.0
532.201355 20.0
532.351379 21.0
538.189331 22.0
538.296204 23.0
539.691406 36.0
540.006775 721.0
541.00293 54.0
541.339661 81.0
542.322449 52.0
543.25 21.0
543.309082 22.0
553.306335 41.0
558.016663 326.0
559.355286 61.0
560.352783 42.0
561.3703 27.0
564.364563 32.0
566.80304 25.0
567.280701 23.0
569.284607 25.0
571.314575 93.0
572.328857 105.0
573.340027 25.0
576.298462 23.0
578.374756 25.0
580.31134 22.0
584.304749 27.0
586.270569 31.0
587.305054 79.0
589.320984 53.0
597.300476 69.0
598.302368 32.0
599.34198 117.0
600.252686 30.0
600.345825 72.0
601.333557 37.0
602.004578 20.0
603.007507 22.0
603.328003 52.0
604.332642 28.0
609.50177 23.0
610.23053 31.0
613.124023 28.0
615.312622 363.0
615.468689 31.0
616.311768 156.0
616.86554 28.0
617.12854 39.0
617.197632 45.0
617.355408 17283.0
618.35907 7516.0
618.509521 27.0
618.621948 25.0
618.789307 52.0
619.260864 76.0
619.362549 1462.0
619.43158 49.0
619.870117 26.0
620.359558 288.0
620.748657 22.0
621.713684 35.0
621.779175 41.0
621.940002 43.0
622.028442 5467.0
622.156738 21.0
622.248535 31.0
622.308228 22.0
622.3703 20.0
622.907898 21.0
623.036743 148.0
623.963745 21.0
624.010254 21.0
626.714417 20.0
628.321777 35.0
631.289124 28.0
632.534058 20.0
633.041016 21.0
633.319519 291.0
633.821716 25.0
634.331238 175.0
635.34375 93.0
636.336243 20.0
641.285034 27.0
649.286194 39.0
651.331909 124.0
652.32782 48.0
653.332825 32.0
849.993652 40.0
904.877686 22.0
940.4245 28.0
949.878723 22.0
980.019897 24.0
1008.827759 24.0
1016.923157 22.0
1018.444336 34.0
1018.506348 29.0
1026.368042 33.0
1027.558472 22.0
1030.513184 21.0
1034.919434 34.0
1035.110352 21.0
1037.968262 20.0
1044.291382 26.0
1053.855835 29.0
1061.03125 21.0
1064.250122 23.0
1067.526123 27.0
1067.939575 23.0
1071.259033 22.0
1083.016113 26.0
1084.991333 27.0
1131.58313 24.0
END IONS

BEGIN IONS
PEPMASS=610.335
TITLE=CCMSLIB00006583846
SPECTRUMID=CCMSLIB00006583846
COMPOUND_NAME=LDOPA-CA
ADDUCT=[M+Na]1+
ION_MODE=positive
SMILES=CC(CCC(=O)NC(Cc1ccc(O)c(O)c1)C(=O)O)C1CCC2C3C(O)CC4CC(O)CCC4(C)C3CC(O)C12C
COLLISION_ENERGY=37.0
MS_MANUFACTURER=Bruker Daltonics
75.051544 27.0
80.200577 26.0
81.067467 81.0
95.088219 33.0
104.058136 24.0
104.832237 26.0
107.046585 22.0
108.561424 21.0
109.098267 21.0
112.080742 30.0
116.193596 30.0
120.088997 29.0
123.083855 24.0
123.835686 26.0
126.46402 32.0
129.10144 28.0
131.086899 33.0
133.085571 34.0
133.101761 61.0
135.045593 27.0
135.116486 26.0
139.034607 32.0
139.111938 21.0
147.11496 101.0
147.913162 33.0
148.119492 30.0
149.132294 27.0
152.071259 275.0
155.084854 83.0
159.542908 33.0
161.132507 46.0
168.231293 21.0
169.100204 54.0
170.107407 28.0
174.05658 41.0
175.116486 28.0
180.060532 39.0
181.048035 227.0
183.119904 23.0
187.118576 29.0
187.159927 53.0
195.122025 43.0
198.07933 1153.0
199.049469 26.0
199.081177 167.0
199.145859 20.0
199.289368 41.0
201.168015 63.0
205.159561 46.0
207.120392 29.0
209.134842 187.0
210.139297 73.0
211.139999 51.0
211.444977 21.0
212.155426 31.0
213.16745 83.0
214.170578 27.0
215.183655 132.0
215.89241 20.0
216.669113 25.0
219.17041 24.0
219.481812 20.0
220.059799 1069.0
220.361053 21.0
221.064407 129.0
221.134354 31.0
222.062592 32.0
223.146561 65.0
225.162918 128.0
226.161636 21.0
226.180252 44.0
227.146637 111.0
227.177994 109.0
227.258362 24.0
228.151855 29.0
228.190735 24.0
229.156601 72.0
235.116684 25.0
237.172058 75.0
239.108948 43.0
241.163071 80.0
242.196152 32.0
243.178909 48.0
244.179794 28.0
253.208725 37.0
254.204559 27.0
256.160553 32.0
256.185211 33.0
259.171265 22.0
263.19989 32.0
265.196411 47.0
267.21759 23.0
268.175385 29.0
269.182434 23.0
276.097534 22.0
280.121887 94.0
281.120758 28.0
281.197723 29.0
282.127716 20.0
283.207611 57.0
285.415955 24.0
286.147156 25.0
293.222687 47.0
295.230499 23.0
296.252106 25.0
309.114532 29.0
309.22641 50.0
309.26004 28.0
309.765869 23.0
310.26709 27.0
318.127502 23.0
318.237335 21.0
319.190826 30.0
319.245178 421.0
320.16095 21.0
320.242004 129.0
321.247986 35.0
328.190887 25.0
335.162872 29.0
335.239929 36.0
336.695007 25.0
337.255188 1114.0
338.168762 21.0
338.260651 218.0
339.261322 102.0
340.2742 25.0
341.318665 34.0
343.177124 25.0
346.16394 22.0
355.265442 53.0
356.265594 27.0
357.248474 25.0
380.220062 32.0
382.199219 24.0
382.53067 22.0
386.271881 22.0
387.211731 21.0
394.254852 23.0
395.195374 21.0
395.258759 117.0
396.25882 27.0
401.963226 22.0
406.83609 22.0
410.250397 21.0
410.97757 34.0
411.72467 28.0
412.287354 94.0
412.782745 30.0
413.184082 24.0
413.269012 2900.0
413.943665 26.0
414.056305 25.0
414.185181 27.0
414.27243 966.0
415.274353 95.0
423.86972 29.0
424.225494 26.0
430.296539 122.0
431.275574 558.0
431.711761 20.0
432.282806 224.0
433.276398 29.0
438.22168 32.0
447.221466 24.0
448.320526 30.0
448.770569 31.0
449.289459 77.0
464.210388 26.0
476.309052 23.0
480.285461 27.0
481.28244 27.0
483.361145 26.0
488.318726 68.0
489.332825 20.0
502.227356 22.0
519.322388 21.0
519.379517 21.0
525.338257 22.0
526.227722 23.0
534.323303 708.0
535.319214 197.0
536.335205 84.0
537.325684 29.0
545.270569 21.0
546.298157 45.0
547.348633 22.0
548.317932 26.0
552.330872 86.0
553.325989 119.0
554.339233 24.0
559.18103 27.0
560.263611 23.0
560.336304 27.0
560.779419 23.0
564.295776 83.0
565.249451 20.0
565.2948 24.0
574.318298 113.0
575.321594 34.0
578.292175 21.0
579.292053 32.0
587.312134 20.0
588.24469 42.0
590.27417 76.0
591.279968 53.0
592.122437 22.0
592.32489 1462.0
592.401917 23.0
592.8172 31.0
593.326172 630.0
593.409424 46.0
593.802795 20.0
594.334656 72.0
595.339172 89.0
596.297913 25.0
597.306885 29.0
600.739807 30.0
605.486145 23.0
606.021545 36.0
606.945312 25.0
607.449036 25.0
607.923157 42.0
608.290283 316.0
609.222351 41.0
609.282593 88.0
609.39032 30.0
609.920288 26.0
610.059998 25.0
610.128723 22.0
610.193665 78.0
610.335083 28136.0
610.51947 27.0
610.68103 58.0
611.030396 22.0
611.157715 20.0
611.338379 11317.0
611.46936 23.0
611.59137 27.0
611.647827 21.0
612.183228 39.0
612.269775 58.0
612.340454 2017.0
612.494202 25.0
612.675598 26.0
613.265381 30.0
613.344299 357.0
614.186646 25.0
614.330078 23.0
614.565735 25.0
615.932617 21.0
615.992981 22.0
616.289612 24.0
617.555054 32.0
617.789368 31.0
622.248291 23.0
623.278564 29.0
626.300171 2373.0
626.568298 20.0
627.301941 1115.0
627.79248 22.0
628.151062 21.0
628.302795 264.0
628.344116 152.0
629.306152 42.0
629.352356 23.0
630.286133 41.0
630.318542 46.0
631.290894 20.0
631.350891 20.0
632.28656 25.0
644.207336 23.0
644.30957 644.0
644.404541 21.0
645.309753 319.0
646.313965 114.0
648.317993 66.0
666.431946 31.0
759.865601 26.0
823.474365 23.0
863.972717 20.0
897.53479 21.0
906.056396 21.0
921.687256 27.0
952.596924 27.0
964.840637 23.0
964.889038 23.0
1001.584045 20.0
1012.342468 28.0
1013.474915 36.0
1015.448425 28.0
1016.348022 37.0
1016.743286 30.0
1018.417969 32.0
1020.010132 23.0
1020.139099 24.0
1020.481018 28.0
1021.444763 25.0
1021.527832 42.0
1021.973267 30.0
1022.322144 30.0
1022.477661 38.0
1024.634033 21.0
1026.671631 32.0
1028.014404 22.0
1029.546387 23.0
1031.428223 23.0
1037.630493 22.0
1041.668091 37.0
1043.634766 37.0
1045.450684 28.0
1045.639282 25.0
1046.656738 36.0
1047.920898 39.0
1050.112427 37.0
1050.696411 24.0
1054.335327 30.0
1054.733521 33.0
1057.211914 25.0
1071.192627 21.0
1071.9646 22.0
1103.370239 23.0
1354.216064 46.0
1885.923584 27.0
END IONS

BEGIN IONS
PEPMASS=617.356
TITLE=CCMSLIB00006583885
SPECTRUMID=CCMSLIB00006583885
COMPOUND_NAME=Trp-CA
ADDUCT=[M+Na]1+
ION_MODE=positive
SMILES=CC(CCC(=O)NC(Cc1c[nH]c2ccccc12)C(=O)O)C1CCC2C3C(O)CC4CC(O)CCC4(C)C3CC(O)C12C
COLLISION_ENERGY=37.0
MS_MANUFACTURER=Bruker Daltonics
84.362991 22.0
91.051476 21.0
96.008293 20.0
99.992035 20.0
101.989243 25.0
103.002502 28.0
103.988625 40.0
107.996025 29.0
108.042 26.0
113.785439 20.0
116.073563 39.0
116.586082 28.0
118.06501 32.0
122.695534 29.0
125.00853 30.0
133.105988 45.0
144.081909 23.0
145.105637 35.0
146.064377 82.0
147.061005 24.0
147.116638 30.0
149.094788 29.0
157.134521 28.0
159.094406 44.0
160.098938 29.0
161.135071 26.0
168.001938 32.0
171.119858 30.0
173.128922 24.0
174.135666 22.0
181.073547 39.0
182.063599 132.0
185.949326 49.0
187.06665 39.0
188.072845 252.0
189.078644 28.0
199.146439 28.0
200.074738 53.0
202.932907 21.0
205.099091 391.0
206.005371 23.0
206.102875 28.0
208.966904 68.0
209.141052 25.0
209.770493 27.0
209.958954 44.0
210.055435 202.0
211.056946 31.0
213.100327 31.0
215.167633 37.0
224.103897 27.0
224.156342 26.0
225.152786 23.0
226.930939 46.0
227.081787 1811.0
228.084564 327.0
229.086807 36.0
230.08284 34.0
231.196472 45.0
238.167313 26.0
241.137375 37.0
242.398453 20.0
243.185928 32.0
245.124451 27.0
245.94516 49.0
247.933258 25.0
248.976822 29.0
250.975342 28.0
255.181351 22.0
263.11792 20.0
264.052216 38.0
264.623169 22.0
266.274902 33.0
269.944733 147.0
277.923096 28.0
278.202026 63.0
279.210724 49.0
285.090332 31.0
287.143158 25.0
287.954132 30.0
288.15509 59.0
288.323517 21.0
289.944336 88.0
290.934265 70.0
291.939575 32.0
294.231323 41.0
296.24408 23.0
299.010925 25.0
304.216003 25.0
307.167938 25.0
309.261871 63.0
310.737793 38.0
310.93396 32.0
311.000977 32.0
316.946655 25.0
319.241302 142.0
320.245026 29.0
321.128998 31.0
324.172607 25.0
330.944092 39.0
331.960663 70.0
333.955536 56.0
336.37619 27.0
336.951874 21.0
337.256897 343.0
338.256927 80.0
339.259033 27.0
342.191315 32.0
343.658295 28.0
349.969299 29.0
351.956329 37.0
352.94931 46.0
353.969696 49.0
355.201172 24.0
355.258942 31.0
356.982178 27.0
361.873993 23.0
371.961121 35.0
371.986115 33.0
373.962646 38.0
374.024231 24.0
375.961365 26.0
379.40509 30.0
382.355865 22.0
383.28302 39.0
391.973175 52.0
392.005615 33.0
393.975952 284.0
395.261658 156.0
395.972229 68.0
396.255341 27.0
396.970612 27.0
398.273132 27.0
409.177612 24.0
412.293213 97.0
413.268738 2758.0
413.979462 109.0
414.271454 681.0
415.27243 161.0
415.970917 187.0
416.955292 42.0
420.151672 23.0
424.974365 49.0
425.444946 29.0
427.739105 30.0
430.300323 119.0
431.281433 942.0
432.275452 163.0
433.283539 87.0
434.173676 20.0
435.263489 38.0
441.187958 22.0
441.238586 21.0
443.261017 38.0
447.255981 23.0
449.284454 59.0
449.373688 28.0
455.98822 114.0
456.305786 26.0
457.98407 49.0
468.34726 42.0
469.267761 28.0
473.373932 27.0
473.759369 30.0
474.004669 36.0
475.963989 21.0
475.998138 153.0
476.043854 21.0
477.98941 374.0
493.356049 32.0
494.001892 21.0
495.332642 74.0
495.850006 28.0
495.960358 25.0
496.002594 30.0
496.350861 27.0
497.011169 20.0
497.353271 20.0
498.354065 21.0
519.999695 34.0
523.33606 24.0
524.568909 21.0
528.777649 29.0
531.257324 29.0
538.016846 60.0
540.007202 1069.0
540.862305 37.0
541.344177 402.0
542.055237 30.0
542.342651 163.0
544.356018 28.0
548.643738 36.0
551.268005 34.0
551.310425 24.0
553.321899 27.0
555.354187 29.0
556.386108 20.0
558.017456 183.0
558.990173 33.0
559.351624 114.0
560.321106 26.0
561.360168 35.0
569.310669 24.0
570.296814 25.0
572.310608 23.0
573.354736 27.0
576.510376 30.0
581.332214 106.0
582.339783 104.0
585.276978 26.0
587.316101 47.0
587.885193 20.0
595.387878 34.0
597.294678 31.0
598.300537 21.0
598.842957 45.0
599.345886 1256.0
600.255859 28.0
600.351196 821.0
601.35321 85.0
601.627563 22.0
602.029236 20.0
603.330627 40.0
604.328308 39.0
606.036621 40.0
608.528564 30.0
609.136963 20.0
612.164856 20.0
613.283142 23.0
614.331055 34.0
614.632507 23.0
615.309692 120.0
615.988037 22.0
616.334106 62.0
616.469299 22.0
616.537292 22.0
616.654358 28.0
616.860046 53.0
616.982361 51.0
617.046753 22.0
617.089294 37.0
617.127625 27.0
617.356567 31157.0
617.510803 44.0
617.699463 38.0
617.813965 22.0
617.867798 21.0
617.916748 35.0
617.955566 22.0
618.052795 24.0
618.13501 36.0
618.199707 43.0
618.274109 183.0
618.360413 13552.0
618.629089 20.0
618.779175 48.0
618.910583 24.0
618.942444 22.0
619.241211 30.0
619.361084 2815.0
619.476929 56.0
619.628784 21.0
619.971313 21.0
620.159973 27.0
620.362732 334.0
620.666199 27.0
621.371643 78.0
621.451965 22.0
621.489807 27.0
621.618286 27.0
621.693909 29.0
621.810059 57.0
621.951294 69.0
622.029297 6044.0
622.156799 20.0
622.74054 26.0
622.907593 54.0
622.947998 51.0
623.031921 137.0
623.194763 21.0
626.34137 29.0
631.87561 23.0
632.160095 28.0
633.144653 24.0
633.324463 1307.0
633.660217 23.0
634.328003 430.0
635.36377 227.0
635.52301 20.0
636.333618 50.0
636.386353 28.0
637.315674 39.0
637.365417 53.0
638.237793 43.0
638.306702 48.0
641.31842 22.0
642.40741 24.0
646.235779 21.0
649.272766 48.0
651.334229 313.0
652.338989 91.0
653.350586 34.0
672.222778 22.0
688.058167 22.0
852.511658 24.0
862.912292 28.0
900.211731 30.0
922.845642 25.0
943.739868 32.0
946.761841 24.0
972.476868 21.0
979.748657 24.0
988.578369 22.0
996.401062 22.0
1003.487244 32.0
1014.527466 21.0
1023.069702 35.0
1026.686768 32.0
1026.913452 34.0
1028.611084 27.0
1029.665161 26.0
1029.912231 21.0
1030.112305 28.0
1030.453247 33.0
1033.937988 31.0
1034.030396 32.0
1034.490967 29.0
1038.144653 21.0
1038.805908 31.0
1040.227051 23.0
1042.302124 21.0
1042.560791 41.0
1042.897095 30.0
1045.719116 20.0
1046.213989 29.0
1052.118408 27.0
1056.528076 26.0
1056.635864 36.0
1062.549194 20.0
1063.561768 21.0
1069.576294 21.0
1076.630737 20.0
1086.037231 21.0
1088.963379 27.0
1089.608032 26.0
1446.037354 21.0
1940.2677 39.0
END IONS

BEGIN IONS
PEPMASS=610.335
TITLE=CCMSLIB00006583947
SPECTRUMID=CCMSLIB00006583947
COMPOUND_NAME=LDOPA-CA
ADDUCT=[M+Na]1+
ION_MODE=positive
SMILES=CC(CCC(=O)NC(Cc1ccc(O)c(O)c1)C(=O)O)C1CCC2C3C(O)CC4CC(O)CCC4(C)C3CC(O)C12C
COLLISION_ENERGY=37.0
MS_MANUFACTURER=Bruker Daltonics
91.051353 29.0
93.07122 40.0
95.088402 89.0
108.089973 30.0
118.073067 24.0
123.118004 42.0
128.077026 25.0
130.080505 25.0
131.086731 21.0
132.989609 27.0
133.10025 28.0
136.048767 34.0
139.035812 29.0
143.089767 31.0
144.089645 24.0
147.119247 47.0
148.122208 61.0
149.094482 25.0
152.071716 393.0
153.074203 52.0
156.195679 22.0
156.24295 33.0
157.101959 60.0
160.120926 35.0
161.132629 58.0
162.057297 60.0
163.040253 52.0
163.112167 30.0
163.148468 24.0
164.043289 37.0
165.043655 23.0
168.116272 30.0
169.106644 57.0
170.105606 31.0
173.094437 25.0
173.126587 27.0
174.057083 32.0
175.116898 34.0
175.156143 23.0
179.002777 36.0
180.152985 32.0
180.599609 27.0
181.051117 247.0
181.095245 32.0
182.052155 20.0
183.12085 37.0
185.141632 23.0
187.156464 55.0
188.076553 30.0
188.150375 47.0
189.162506 67.0
192.115829 31.0
197.131927 78.0
197.489883 25.0
198.078369 1322.0
199.083191 152.0
199.147308 50.0
200.085724 49.0
200.160034 33.0
203.14502 42.0
204.148117 29.0
206.083313 52.0
209.13681 191.0
210.07782 29.0
211.146927 62.0
212.151901 31.0
213.08783 27.0
213.164154 99.0
214.051102 23.0
215.185562 30.0
216.184113 53.0
217.158768 35.0
219.172501 27.0
220.059814 1198.0
221.062881 88.0
221.154694 21.0
223.149216 30.0
225.162338 59.0
226.162888 38.0
227.144196 160.0
227.181061 89.0
229.128906 20.0
229.160355 57.0
229.203262 40.0
237.166626 60.0
238.075317 37.0
238.174789 30.0
239.180511 46.0
241.163773 45.0
241.193863 70.0
242.204483 49.0
243.177719 77.0
244.175018 27.0
246.146423 31.0
251.178406 38.0
252.189484 22.0
253.191574 45.0
255.183945 75.0
257.191986 23.0
257.463837 20.0
259.620239 20.0
262.163452 29.0
262.271393 28.0
266.203247 63.0
267.211884 33.0
271.208008 34.0
272.664154 31.0
275.150269 22.0
280.120941 156.0
281.119812 29.0
281.229095 47.0
282.124176 26.0
288.145691 29.0
293.22937 65.0
295.212769 22.0
295.248108 82.0
296.249329 40.0
297.222321 25.0
297.245972 24.0
300.170868 30.0
309.228516 68.0
309.262573 71.0
310.266632 28.0
311.144348 20.0
319.24408 515.0
319.524689 27.0
320.154297 42.0
320.243713 69.0
321.163483 35.0
322.16571 50.0
326.930969 32.0
334.169922 54.0
335.171631 32.0
336.1763 24.0
337.254883 1253.0
338.258545 217.0
339.266541 22.0
340.158478 25.0
350.980621 22.0
351.186188 23.0
355.265198 60.0
358.130219 32.0
361.188629 27.0
371.049194 32.0
378.208649 35.0
379.492004 32.0
388.214447 25.0
388.53952 20.0
395.259064 61.0
396.213043 20.0
397.207184 28.0
399.88269 20.0
400.2164 57.0
406.251923 36.0
409.714142 32.0
411.406128 21.0
412.280731 92.0
413.220337 37.0
413.268829 3348.0
414.272461 1028.0
414.840546 33.0
414.884857 25.0
415.276093 138.0
416.272034 47.0
416.308472 30.0
416.588348 20.0
418.055237 32.0
422.014435 22.0
422.694366 22.0
426.176056 27.0
426.23233 42.0
426.290771 33.0
426.92099 24.0
428.257782 44.0
429.216309 37.0
430.294434 37.0
431.276764 643.0
432.285461 267.0
432.338257 24.0
433.277405 34.0
435.376953 21.0
438.227203 33.0
442.262878 34.0
446.253204 25.0
449.261047 31.0
449.296539 20.0
452.30069 22.0
465.267456 45.0
475.273499 22.0
481.616364 20.0
483.349915 30.0
488.20166 27.0
488.329498 45.0
492.244873 22.0
503.094788 35.0
510.265503 24.0
511.319458 25.0
514.039795 28.0
517.319336 28.0
527.506775 24.0
530.296814 22.0
532.436157 31.0
534.322815 1190.0
535.326294 422.0
536.327087 113.0
537.334351 48.0
537.377014 24.0
539.275879 29.0
540.343384 22.0
543.960754 20.0
546.236877 22.0
546.276917 21.0
548.343933 37.0
549.332764 33.0
551.300171 29.0
551.882446 27.0
552.324219 265.0
552.590393 28.0
553.340332 45.0
555.330383 25.0
556.775269 23.0
562.074585 22.0
562.282776 32.0
563.69635 33.0
565.315552 22.0
566.355347 37.0
567.565613 27.0
568.326782 26.0
570.346985 30.0
571.335571 46.0
571.391785 22.0
572.264404 23.0
573.357056 24.0
574.317139 114.0
575.321655 29.0
584.691345 27.0
588.216614 37.0
589.247742 45.0
590.277832 92.0
591.284546 38.0
591.457153 20.0
591.888672 20.0
592.324341 1828.0
592.401489 23.0
592.763855 23.0
592.904419 25.0
593.214966 30.0
593.329773 778.0
593.789978 30.0
594.331238 124.0
596.306702 89.0
597.309631 53.0
602.091492 21.0
602.34845 26.0
602.45575 34.0
602.812866 26.0
605.240601 23.0
605.725342 27.0
605.884277 23.0
607.271667 29.0
607.308289 56.0
608.240479 21.0
608.294067 366.0
608.380249 31.0
608.448853 39.0
609.079773 24.0
609.218262 26.0
609.299133 158.0
609.42688 48.0
609.641541 24.0
609.722778 27.0
609.841919 35.0
610.005005 31.0
610.117065 53.0
610.22644 113.0
610.334778 30293.0
610.481873 56.0
610.534973 20.0
610.56604 27.0
610.647766 49.0
610.726624 24.0
610.900391 57.0
611.052856 21.0
611.145447 40.0
611.338501 12011.0
611.515503 33.0
611.664978 53.0
611.715332 30.0
612.231934 27.0
612.342773 2436.0
612.41333 37.0
612.480591 24.0
612.565552 44.0
612.690918 25.0
612.83606 26.0
612.991028 36.0
613.141541 22.0
613.34552 457.0
613.638428 23.0
613.676208 24.0
613.913269 26.0
614.018677 38.0
614.340942 70.0
614.48468 29.0
614.685608 30.0
614.75354 20.0
614.924194 22.0
614.990234 22.0
615.551636 23.0
615.889221 20.0
616.897583 24.0
623.259705 31.0
624.24823 61.0
624.772095 22.0
625.581421 23.0
626.132202 23.0
626.22345 30.0
626.301392 3052.0
626.385681 24.0
626.424561 36.0
627.059692 37.0
627.193115 56.0
627.30188 1459.0
627.632629 27.0
628.309998 378.0
629.269104 20.0
629.311584 69.0
629.353271 121.0
630.289551 68.0
630.355835 28.0
630.581421 24.0
631.314697 40.0
632.237488 21.0
632.302612 24.0
634.233643 26.0
635.533203 20.0
640.283569 23.0
641.130371 22.0
642.270203 74.0
644.309631 735.0
644.515137 35.0
645.311523 315.0
646.313904 93.0
647.312073 21.0
663.315063 23.0
672.149292 27.0
672.785583 33.0
676.790283 27.0
710.970154 25.0
714.494263 20.0
839.835083 26.0
895.752441 22.0
897.02356 22.0
898.444702 24.0
910.323975 24.0
913.466797 28.0
949.048035 25.0
956.309631 20.0
979.571533 21.0
983.816406 24.0
989.049744 30.0
995.01178 20.0
996.113586 23.0
1008.462708 31.0
1010.376831 32.0
1010.957153 20.0
1013.692078 27.0
1014.029419 22.0
1017.057739 24.0
1018.302612 29.0
1019.475891 20.0
1019.753479 32.0
1026.214478 36.0
1027.422119 35.0
1028.349487 34.0
1029.230835 43.0
1029.912476 22.0
1030.702637 24.0
1030.799927 28.0
1035.294189 23.0
1036.888916 27.0
1049.213379 23.0
1049.407715 23.0
1051.547974 32.0
1053.696899 21.0
1054.467651 21.0
1057.665894 24.0
1058.773804 23.0
1060.928101 25.0
1064.77002 27.0
1065.809082 35.0
1068.792725 24.0
1077.772095 43.0
1077.844971 29.0
1079.971436 25.0
1171.647827 22.0
1968.971313 22.0
END IONS

BEGIN IONS
PEPMASS=617.356
TITLE=CCMSLIB00006583985
SPECTRUMID=CCMSLIB00006583985
COMPOUND_NAME=Trp-CA
ADDUCT=[M+Na]1+
ION_MODE=positive
SMILES=CC(CCC(=O)NC(Cc1c[nH]c2ccccc12)C(=O)O)C1CCC2C3C(O)CC4CC(O)CCC4(C)C3CC(O)C12C
COLLISION_ENERGY=37.0
MS_MANUFACTURER=Bruker Daltonics
79.052734 23.0
94.505775 33.0
96.004585 71.0
97.101944 29.0
97.994095 24.0
105.984962 45.0
111.581879 22.0
112.718117 29.0
118.073822 32.0
121.976257 40.0
123.084175 58.0
125.095688 32.0
130.064011 23.0
131.072235 31.0
132.088333 23.0
133.103363 22.0
136.052368 44.0
137.003525 31.0
137.123306 34.0
145.020172 33.0
147.120377 89.0
154.127625 33.0
156.082153 37.0
159.092209 145.0
161.108459 71.0
162.733185 22.0
168.006119 41.0
171.120605 29.0
175.113251 59.0
179.14679 30.0
180.073212 20.0
181.073471 121.0
182.053604 57.0
182.089157 21.0
183.026764 35.0
185.134766 32.0
188.07338 581.0
189.076736 85.0
189.163605 26.0
192.622162 22.0
195.991928 22.0
198.123474 31.0
199.154968 104.0
201.162247 34.0
205.10022 442.0
206.105209 61.0
207.135025 21.0
207.939011 20.0
209.072205 21.0
209.135101 100.0
210.053757 319.0
211.059464 32.0
213.133331 34.0
213.166061 40.0
214.165527 34.0
215.172302 39.0
223.145493 24.0
225.165817 55.0
225.937469 31.0
226.976074 53.0
227.047302 20.0
227.082855 2458.0
227.145889 77.0
228.053741 26.0
228.084152 180.0
228.974289 29.0
229.085129 26.0
232.932037 21.0
235.127701 23.0
237.17067 20.0
241.16008 61.0
241.195999 66.0
242.944458 38.0
243.193985 43.0
244.114151 22.0
245.896088 26.0
245.935577 148.0
247.946686 48.0
248.925156 30.0
248.981247 26.0
249.986862 44.0
250.499893 24.0
253.190262 32.0
255.180908 52.0
255.978088 27.0
259.111328 34.0
266.922058 23.0
268.988464 20.0
269.186279 27.0
269.941589 31.0
270.989014 23.0
272.98822 22.0
273.019226 21.0
278.204315 27.0
279.216003 22.0
280.761047 24.0
285.121704 28.0
285.963562 25.0
287.14505 71.0
287.949158 23.0
288.140869 41.0
289.94342 50.0
290.004181 29.0
290.924469 38.0
292.934113 38.0
295.205811 33.0
296.209717 24.0
296.245605 23.0
297.161102 28.0
298.252472 29.0
299.975952 21.0
301.156219 29.0
309.261108 32.0
310.917358 28.0
310.99411 25.0
311.240936 33.0
311.943481 29.0
312.933807 21.0
315.579529 28.0
319.241577 61.0
320.200806 22.0
320.249054 83.0
327.16806 42.0
329.964417 71.0
330.943207 23.0
331.954956 84.0
332.940033 68.0
333.768585 20.0
337.256378 467.0
337.974854 23.0
338.260223 137.0
339.258148 41.0
346.761108 25.0
349.962952 75.0
351.966888 50.0
352.963226 26.0
353.956482 89.0
354.036346 30.0
356.254333 34.0
357.859741 21.0
361.23938 26.0
367.114868 21.0
371.973114 57.0
373.974121 33.0
374.031433 23.0
376.671143 41.0
388.246521 25.0
390.090576 24.0
391.973206 57.0
393.975037 171.0
395.114624 25.0
395.26947 71.0
395.519836 28.0
395.969482 45.0
396.100098 21.0
396.247284 53.0
398.961853 57.0
401.169922 20.0
405.663635 20.0
406.216888 21.0
411.981384 47.0
412.288055 101.0
413.160339 24.0
413.267975 3407.0
413.982178 170.0
414.271606 956.0
414.980255 35.0
415.270752 134.0
415.930481 24.0
415.972229 68.0
416.00351 38.0
416.353516 21.0
428.270935 23.0
430.296692 204.0
431.277832 727.0
432.284973 348.0
433.210968 26.0
433.28479 50.0
434.974548 25.0
442.296356 32.0
447.239594 24.0
449.067688 28.0
449.286011 98.0
450.284515 20.0
452.224152 22.0
455.989044 198.0
457.993378 40.0
470.286224 22.0
472.128479 25.0
475.99649 233.0
477.684692 21.0
477.98587 411.0
478.974335 70.0
487.878082 29.0
490.27298 34.0
490.611084 21.0
491.275116 22.0
493.371735 25.0
494.008759 75.0
495.342072 43.0
497.187408 28.0
501.014465 27.0
507.262939 30.0
519.998352 34.0
524.319336 28.0
530.286072 28.0
539.078308 33.0
540.005371 747.0
540.34906 27.0
541.340942 536.0
542.344604 219.0
543.352295 44.0
543.575317 24.0
544.335388 23.0
546.320862 28.0
550.327942 30.0
553.326477 30.0
553.754517 30.0
554.309143 27.0
554.874207 23.0
555.370239 23.0
558.023865 203.0
559.159485 27.0
559.353149 95.0
560.341125 29.0
564.330444 23.0
565.380859 32.0
567.302185 23.0
570.273499 22.0
570.314087 40.0
571.324341 32.0
571.86084 22.0
572.299072 20.0
572.349976 59.0
573.211853 21.0
573.398682 35.0
579.287109 27.0
581.331055 135.0
582.278137 20.0
582.869812 25.0
583.315002 26.0
584.32782 28.0
585.272766 24.0
587.319031 20.0
588.343018 25.0
588.943604 30.0
589.32251 54.0
590.358887 33.0
592.030762 48.0
595.381104 32.0
596.250427 32.0
597.302917 24.0
597.357178 34.0
598.332092 23.0
598.56488 33.0
599.230957 27.0
599.287781 37.0
599.34314 1551.0
599.415527 44.0
600.251526 32.0
600.350891 734.0
601.358337 115.0
602.319153 20.0
603.314941 23.0
606.679749 23.0
606.744324 21.0
608.220154 20.0
609.474792 29.0
610.185669 36.0
613.276001 22.0
614.021179 20.0
614.844604 23.0
615.31543 176.0
615.527649 28.0
615.903015 44.0
616.309448 57.0
616.606689 37.0
616.940125 30.0
617.029053 22.0
617.088745 22.0
617.172546 40.0
617.355774 33211.0
617.491699 58.0
617.567383 26.0
617.612 27.0
617.654663 49.0
617.72821 43.0
617.767395 37.0
617.903198 37.0
618.065918 33.0
618.102112 25.0
618.13739 26.0
618.198608 28.0
618.248291 57.0
618.359619 14328.0
618.459595 63.0
618.53363 32.0
618.573425 23.0
618.958191 47.0
619.035706 25.0
619.107666 46.0
619.191223 21.0
619.28064 66.0
619.361145 3126.0
619.481873 35.0
619.620056 23.0
619.934753 28.0
620.09137 39.0
620.364136 433.0
620.685791 21.0
620.781555 24.0
620.862854 25.0
621.044495 24.0
621.3974 59.0
621.608826 36.0
621.66333 20.0
621.72168 38.0
621.800232 31.0
621.912781 46.0
622.028625 5999.0
622.386719 60.0
623.033569 105.0
623.256897 34.0
623.564758 35.0
623.688293 25.0
625.138367 23.0
626.348694 25.0
626.588501 20.0
627.85022 21.0
633.125854 34.0
633.19397 25.0
633.31781 1295.0
633.682434 44.0
634.325989 506.0
634.616394 28.0
635.208191 28.0
635.360962 241.0
636.369568 126.0
637.296021 70.0
638.334717 21.0
639.23053 38.0
640.199219 20.0
641.243408 22.0
642.306824 22.0
647.054443 24.0
649.280518 57.0
651.15271 24.0
651.330811 388.0
652.322815 150.0
653.326416 55.0
654.334045 28.0
656.307617 26.0
659.316345 32.0
677.220032 35.0
725.91748 20.0
809.968994 24.0
898.906494 21.0
904.598328 24.0
908.802246 30.0
926.724976 37.0
944.998169 24.0
952.036987 25.0
969.926025 23.0
971.253784 33.0
976.858582 24.0
978.911987 20.0
980.710693 30.0
991.70105 28.0
996.665955 21.0
1003.96405 28.0
1012.029907 26.0
1015.221252 27.0
1015.629028 21.0
1016.970032 30.0
1024.687256 28.0
1024.816406 26.0
1030.552246 28.0
1031.019287 26.0
1031.238647 25.0
1032.004761 39.0
1033.137207 20.0
1035.080933 36.0
1039.407104 20.0
1040.037354 20.0
1043.359863 31.0
1044.973022 29.0
1048.588989 25.0
1049.041138 27.0
1049.506836 33.0
1050.257202 55.0
1050.915283 28.0
1055.304443 31.0
1055.417236 33.0
1058.052246 23.0
1059.021606 20.0
1059.749023 51.0
1063.656616 37.0
1064.613647 21.0
1067.093506 26.0
1068.414795 22.0
1071.077271 21.0
1082.661011 29.0
1088.629761 35.0
1986.507446 31.0
END IONS

BEGIN IONS
PEPMASS=601.361
TITLE=CCMSLIB00006584098
SPECTRUMID=CCMSLIB00006584098
COMPOUND_NAME=Trp-CDCA
ADDUCT=[M+Na]1+
ION_MODE=positive
SMILES=CC(CCC(=O)NC(Cc1c[nH]c2ccccc12)C(=O)O)C1CCC2C3C(O)CC4CC(O)CCC4(C)C3CCC12C
COLLISION_ENERGY=37.0
MS_MANUFACTURER=Bruker Daltonics
85.884453 23.0
91.052933 43.0
96.003151 117.0
106.062912 34.0
107.58213 30.0
109.099159 31.0
109.939445 22.0
118.064713 31.0
123.379669 27.0
127.913963 24.0
131.070404 29.0
133.101349 32.0
140.04982 23.0
145.103561 32.0
147.116302 55.0
149.127701 38.0
152.64827 25.0
159.09285 68.0
160.096161 44.0
164.154922 42.0
170.059372 25.0
175.11525 40.0
175.149445 23.0
176.740723 36.0
178.088852 30.0
181.073975 247.0
181.998215 34.0
182.05925 581.0
182.089935 69.0
183.070129 39.0
185.137924 35.0
185.23201 29.0
186.121643 46.0
188.072586 478.0
189.077347 66.0
191.085968 29.0
197.131317 21.0
199.088562 53.0
199.145523 33.0
200.953339 20.0
201.1707 37.0
202.178604 30.0
204.072144 28.0
205.098373 365.0
206.102875 44.0
207.132217 23.0
209.070694 27.0
210.055527 1279.0
211.056976 138.0
212.060318 36.0
214.171219 21.0
215.177567 34.0
216.14949 26.0
226.028305 20.0
226.992325 24.0
227.081131 7630.0
227.178711 25.0
227.359558 23.0
228.009171 32.0
228.085464 1153.0
229.09169 94.0
229.139481 35.0
229.301727 21.0
230.099289 31.0
244.187042 33.0
245.093552 24.0
246.076904 20.0
247.015381 20.0
254.963333 27.0
257.180115 24.0
260.225494 22.0
287.141266 42.0
291.926941 20.0
297.261627 20.0
306.200714 44.0
321.257324 22.0
335.261719 25.0
339.273407 135.0
340.279968 42.0
341.279663 33.0
347.211548 24.0
355.198914 33.0
357.283234 22.0
357.400177 25.0
376.325165 22.0
377.137848 25.0
382.870331 27.0
388.122589 23.0
396.283783 135.0
397.218475 21.0
397.27002 141.0
398.272491 39.0
404.190216 28.0
414.2948 91.0
415.243011 28.0
415.291809 66.0
416.290771 108.0
416.62851 33.0
418.230804 21.0
418.29425 21.0
424.272614 35.0
426.301697 52.0
432.308472 47.0
433.292175 56.0
435.167114 28.0
435.989777 33.0
438.713501 30.0
450.23822 24.0
454.241486 24.0
454.286163 26.0
467.297302 26.0
470.255219 22.0
472.974487 29.0
481.216827 36.0
488.892792 25.0
497.36145 34.0
497.906586 30.0
510.8909 25.0
511.32135 64.0
516.193542 39.0
520.300964 25.0
526.304077 21.0
527.249939 20.0
536.121399 23.0
536.564758 25.0
537.340454 124.0
537.884949 20.0
538.345459 61.0
539.351501 82.0
543.355469 199.0
543.441162 32.0
544.378723 67.0
545.367371 34.0
546.315308 28.0
553.278503 23.0
555.31842 47.0
555.549927 22.0
556.315979 21.0
557.385559 20.0
563.383118 26.0
564.823425 33.0
565.334595 74.0
566.337708 38.0
572.357666 21.0
572.853027 24.0
573.336426 47.0
573.420654 28.0
574.31366 50.0
581.289612 54.0
581.676758 21.0
583.165894 21.0
583.351257 2248.0
583.609924 40.0
584.129822 21.0
584.355164 955.0
585.297546 33.0
585.354492 218.0
586.368347 41.0
586.709717 30.0
591.940552 22.0
592.064209 24.0
592.508606 23.0
592.827637 25.0
593.08429 25.0
593.543274 48.0
593.800171 21.0
593.895996 21.0
594.646484 23.0
595.126404 27.0
595.78595 22.0
598.08252 24.0
598.662964 21.0
599.287231 58.0
599.319214 108.0
599.411804 38.0
599.440125 44.0
599.552368 24.0
599.791626 25.0
599.915649 27.0
600.328979 36.0
600.499817 68.0
600.740051 26.0
600.845215 45.0
600.882751 29.0
600.994812 37.0
601.07959 39.0
601.197388 77.0
601.361267 44850.0
601.486633 57.0
601.580078 35.0
601.630981 23.0
601.696533 30.0
601.753113 45.0
601.987732 48.0
602.063416 56.0
602.122375 30.0
602.170593 35.0
602.241821 57.0
602.364075 17976.0
602.483765 67.0
602.618591 65.0
602.730408 69.0
602.823242 45.0
602.90625 38.0
602.96051 31.0
603.02594 21.0
603.121887 23.0
603.161011 50.0
603.209412 37.0
603.288818 41.0
603.365967 3672.0
603.519348 21.0
603.766357 23.0
604.288757 22.0
604.371887 469.0
604.591553 23.0
605.051147 32.0
605.116089 20.0
605.371582 135.0
605.713806 34.0
605.845947 35.0
605.901306 27.0
605.936646 37.0
606.304199 21.0
606.328491 23.0
606.444763 40.0
606.72345 20.0
608.538757 30.0
612.831299 24.0
613.931519 20.0
617.323792 524.0
618.329773 248.0
619.332275 99.0
619.374207 197.0
620.36853 65.0
621.450317 27.0
635.342712 121.0
636.347595 65.0
637.330444 26.0
641.362976 25.0
643.053894 21.0
653.348511 66.0
655.310669 22.0
745.423035 23.0
754.349976 23.0
816.942993 20.0
883.229736 23.0
909.384949 31.0
914.870483 23.0
920.488159 30.0
925.293335 34.0
925.377625 22.0
925.464233 20.0
945.741028 40.0
950.102417 25.0
950.672668 38.0
954.48468 29.0
962.915588 28.0
964.456787 29.0
964.619934 21.0
971.078674 20.0
971.793518 25.0
973.621033 32.0
974.552795 21.0
975.009216 24.0
978.716431 27.0
981.825134 20.0
983.089478 20.0
985.743652 20.0
988.976196 35.0
989.805786 23.0
992.237244 22.0
1002.553772 45.0
1002.967224 22.0
1004.560913 35.0
1006.41925 28.0
1006.75769 24.0
1008.621582 29.0
1009.799194 22.0
1010.074646 49.0
1010.544556 23.0
1010.943909 21.0
1011.065735 23.0
1012.867249 22.0
1012.986084 27.0
1013.687317 28.0
1014.720276 47.0
1014.833252 36.0
1015.737976 47.0
1015.974915 20.0
1017.454102 34.0
1019.61261 25.0
1021.420593 24.0
1022.823547 24.0
1028.245239 27.0
1030.227905 45.0
1033.948364 20.0
1034.177979 24.0
1036.588745 23.0
1037.095825 35.0
1039.033569 24.0
1041.791748 26.0
1044.599243 28.0
1063.111694 22.0
1543.109863 26.0
1776.724854 37.0
END IONS

BEGIN IONS
PEPMASS=601.361
TITLE=CCMSLIB00006584212
SPECTRUMID=CCMSLIB00006584212
COMPOUND_NAME=Trp-CDCA
ADDUCT=[M+Na]1+
ION_MODE=positive
SMILES=CC(CCC(=O)NC(Cc1c[nH]c2ccccc12)C(=O)O)C1CCC2C3C(O)CC4CC(O)CCC4(C)C3CCC12C
COLLISION_ENERGY=37.0
MS_MANUFACTURER=Bruker Daltonics
83.082214 25.0
91.050529 24.0
95.375137 35.0
96.003532 102.0
100.060089 33.0
110.072433 32.0
110.104408 23.0
123.080444 23.0
130.06337 29.0
135.117538 43.0
136.079849 34.0
136.096329 30.0
145.102936 30.0
145.968826 25.0
146.057556 29.0
149.662949 21.0
152.073181 32.0
154.151382 32.0
159.092255 89.0
162.113327 27.0
163.153534 35.0
166.061768 28.0
175.148651 74.0
177.170059 39.0
178.128342 31.0
181.075424 323.0
181.123703 25.0
182.059662 484.0
183.059921 33.0
188.073761 250.0
189.07579 62.0
194.765701 23.0
198.074097 24.0
199.091705 28.0
201.170364 56.0
205.100967 340.0
206.102188 65.0
209.08522 30.0
209.238205 32.0
210.056442 914.0
211.056702 200.0
212.155136 41.0
213.212952 25.0
217.157318 24.0
224.304611 45.0
227.081299 6415.0
228.010483 31.0
228.049896 41.0
228.084534 1035.0
229.077454 44.0
229.166885 31.0
229.866302 20.0
239.180664 70.0
245.091644 20.0
246.715378 30.0
257.833405 20.0
281.388489 21.0
299.265839 26.0
307.878357 22.0
308.496857 21.0
311.783997 26.0
319.291046 31.0
321.258026 106.0
322.25351 40.0
331.617096 37.0
339.269989 83.0
340.273254 70.0
340.331696 29.0
363.184143 21.0
363.439423 32.0
378.43512 23.0
384.712921 38.0
394.163605 27.0
394.680908 26.0
396.285278 108.0
397.262115 61.0
399.278931 30.0
407.231201 30.0
414.293732 61.0
415.287994 114.0
416.290436 90.0
426.292847 23.0
427.148682 29.0
433.298157 28.0
436.216278 28.0
438.578766 28.0
441.251343 23.0
452.177246 25.0
456.278381 22.0
456.334045 27.0
459.219391 25.0
470.277771 24.0
481.260529 32.0
485.602356 28.0
493.536377 35.0
495.305237 25.0
507.271027 35.0
511.339905 26.0
512.384216 31.0
512.432251 28.0
515.362122 20.0
516.828674 22.0
526.284058 20.0
529.039612 24.0
536.340576 20.0
537.345093 65.0
539.35968 24.0
539.388855 37.0
540.373108 23.0
542.605896 32.0
543.358521 58.0
544.374146 116.0
545.303833 20.0
546.38678 27.0
551.28595 29.0
555.335876 94.0
556.333618 70.0
558.374634 21.0
561.367065 21.0
565.323792 27.0
568.470032 28.0
569.496094 32.0
572.768921 35.0
573.334839 69.0
575.472717 28.0
580.130859 24.0
581.125122 31.0
581.298584 57.0
583.093811 26.0
583.291687 26.0
583.350708 2348.0
583.660217 32.0
584.119141 36.0
584.355164 948.0
585.358276 144.0
586.351013 45.0
588.642578 31.0
590.212524 24.0
598.062012 28.0
598.286194 32.0
598.329956 21.0
598.4198 21.0
598.576965 26.0
599.314148 166.0
599.408752 23.0
599.489136 21.0
600.152405 39.0
600.315369 58.0
600.421509 33.0
600.753601 37.0
600.846741 60.0
600.902649 27.0
600.961243 40.0
601.061157 24.0
601.09082 25.0
601.139343 68.0
601.186035 60.0
601.361572 36683.0
601.469604 58.0
601.53302 46.0
601.703247 31.0
601.790283 36.0
601.907043 21.0
601.948303 31.0
601.988647 43.0
602.029968 27.0
602.155701 22.0
602.247375 80.0
602.294006 132.0
602.364563 16894.0
602.476257 70.0
602.536682 35.0
602.85675 24.0
602.963135 20.0
603.013855 22.0
603.281616 47.0
603.365417 2651.0
603.470093 28.0
604.369202 560.0
604.616455 28.0
605.217163 22.0
605.366821 83.0
605.622009 23.0
605.720032 26.0
605.905334 24.0
608.003906 23.0
616.190308 21.0
617.326294 517.0
618.332764 186.0
619.323364 36.0
619.369141 133.0
620.387695 96.0
629.275391 23.0
633.783691 20.0
635.33667 154.0
636.338501 80.0
637.35437 23.0
638.338379 23.0
653.34021 35.0
869.171387 20.0
879.712769 23.0
897.281128 29.0
903.598389 21.0
917.056824 22.0
946.194275 28.0
960.863098 23.0
961.606323 20.0
969.457458 31.0
971.766724 29.0
972.174438 23.0
977.227295 38.0
979.581726 26.0
980.848694 33.0
983.648621 30.0
985.681824 21.0
989.169556 33.0
996.837769 30.0
998.230713 30.0
999.837097 24.0
1001.751709 39.0
1003.958008 32.0
1004.027222 26.0
1005.072937 21.0
1007.955872 22.0
1008.282837 29.0
1010.311462 42.0
1010.5755 32.0
1011.742493 29.0
1015.771973 44.0
1017.849976 24.0
1020.077881 33.0
1022.342896 35.0
1025.683594 37.0
1040.956909 25.0
1044.526978 28.0
1044.690308 20.0
1045.119385 21.0
1047.227051 24.0
1053.703857 52.0
1053.835083 29.0
1059.670044 23.0
1277.147705 20.0
1682.108643 24.0
END IONS

BEGIN IONS
PEPMASS=601.361
TITLE=CCMSLIB00006584325
SPECTRUMID=CCMSLIB00006584325
COMPOUND_NAME=Trp-DCA
ADDUCT=[M+Na]1+
ION_MODE=positive
SMILES=CC(CCC(=O)NC(Cc1c[nH]c2ccccc12)C(=O)O)C1CCC2C3CCC4CC(O)CCC4(C)C3CC(O)C12C
COLLISION_ENERGY=37.0
MS_MANUFACTURER=Bruker Daltonics
78.099075 20.0
86.09478 30.0
86.784546 20.0
96.004639 131.0
96.130394 34.0
100.112167 38.0
103.575356 28.0
109.098793 56.0
110.069618 31.0
111.05513 25.0
111.081123 24.0
117.144989 25.0
119.086449 33.0
123.083092 45.0
130.062302 31.0
132.079605 24.0
136.075043 61.0
144.077148 24.0
146.063934 91.0
148.118256 30.0
151.112717 23.0
155.046143 28.0
159.092804 91.0
164.151306 22.0
167.090454 32.0
181.077408 460.0
182.05896 350.0
182.091415 83.0
183.064117 53.0
183.097794 24.0
188.071075 275.0
188.364273 25.0
189.073181 21.0
199.085922 24.0
201.702881 24.0
203.180847 23.0
205.099457 461.0
206.102402 76.0
208.195084 44.0
210.05426 693.0
211.059021 203.0
211.123352 34.0
211.263443 35.0
211.658661 26.0
213.493774 32.0
215.180527 26.0
223.076782 29.0
223.133408 21.0
227.081787 8157.0
227.149582 42.0
227.501526 25.0
228.085098 857.0
228.534744 27.0
229.088882 49.0
229.154877 37.0
229.197525 29.0
230.1716 24.0
231.173096 22.0
239.174637 32.0
241.194717 43.0
242.506058 26.0
243.179413 26.0
245.092453 27.0
245.195801 24.0
254.147156 30.0
254.651077 20.0
259.923706 25.0
269.133606 22.0
271.207306 30.0
273.113373 27.0
275.899536 26.0
277.140564 22.0
283.211426 22.0
287.153961 40.0
289.150269 20.0
289.270294 25.0
295.162323 22.0
295.246735 26.0
297.239075 27.0
297.277435 30.0
297.606384 20.0
298.22818 27.0
300.457947 25.0
304.187866 21.0
305.136475 28.0
306.128204 27.0
314.266632 32.0
314.720581 23.0
321.255798 113.0
322.256042 35.0
339.266632 284.0
340.275421 33.0
356.19989 25.0
357.274689 61.0
357.706787 23.0
363.207367 23.0
378.276642 26.0
385.568054 23.0
393.57962 21.0
396.1987 30.0
396.285767 43.0
396.552582 48.0
396.86319 20.0
397.221191 76.0
397.27356 4652.0
398.277069 1044.0
398.414368 34.0
399.277924 255.0
399.712738 20.0
400.278351 33.0
402.487915 29.0
407.236755 25.0
413.232422 28.0
413.73584 21.0
414.25354 30.0
414.299072 192.0
415.284912 1404.0
415.622772 21.0
416.290558 387.0
417.019989 20.0
417.056213 25.0
417.290436 40.0
423.11969 26.0
423.859375 25.0
427.293304 23.0
432.207703 49.0
432.32193 30.0
433.294281 227.0
434.303101 64.0
453.239807 21.0
475.077332 34.0
476.709137 27.0
482.084686 33.0
482.900055 29.0
497.362396 47.0
498.350098 22.0
502.294617 24.0
502.997162 36.0
504.179657 21.0
504.775543 29.0
507.325775 21.0
512.346741 25.0
522.35968 28.0
524.13147 25.0
525.321838 31.0
527.338562 20.0
528.803711 29.0
529.691956 23.0
534.442383 22.0
539.365295 43.0
539.398193 33.0
540.37262 49.0
541.384277 23.0
543.359253 219.0
544.354797 99.0
545.357361 31.0
551.267456 28.0
553.108337 24.0
553.290833 27.0
555.328064 38.0
556.330444 73.0
556.7948 28.0
557.328735 29.0
561.374084 56.0
565.357971 36.0
566.361084 54.0
566.929321 27.0
567.368835 21.0
571.31543 105.0
572.318359 48.0
572.832458 34.0
574.336853 31.0
581.315063 52.0
581.363831 36.0
582.312378 21.0
582.920044 45.0
583.351501 2519.0
584.285522 43.0
584.354065 794.0
585.359863 266.0
587.3255 37.0
587.374817 20.0
587.497559 33.0
589.319702 76.0
591.773193 26.0
592.288208 33.0
593.307739 23.0
593.425781 32.0
593.562744 27.0
597.284607 22.0
597.650391 34.0
598.092529 21.0
598.311523 40.0
598.940308 44.0
599.28125 53.0
599.39917 65.0
599.995483 35.0
600.041626 25.0
600.135742 44.0
600.279724 47.0
600.405396 32.0
600.548279 31.0
600.773315 61.0
600.951721 31.0
601.06604 28.0
601.098694 59.0
601.207703 157.0
601.23114 155.0
601.361267 64533.0
601.482788 55.0
601.50769 47.0
601.59967 38.0
601.679138 45.0
601.735229 86.0
601.786255 58.0
601.876892 40.0
601.982788 26.0
602.018921 54.0
602.115417 21.0
602.153015 28.0
602.210754 35.0
602.253723 63.0
602.363953 28228.0
602.467224 44.0
602.620178 28.0
602.671997 88.0
602.726257 21.0
602.754883 24.0
602.827026 21.0
602.878723 21.0
602.929565 26.0
603.079834 23.0
603.186584 25.0
603.240723 34.0
603.367432 5429.0
603.454224 30.0
603.521545 29.0
603.571106 21.0
603.668396 26.0
603.931946 23.0
603.980286 26.0
604.030273 42.0
604.184143 26.0
604.374817 669.0
604.919128 21.0
605.089539 42.0
605.192932 23.0
605.330017 30.0
605.38208 114.0
605.573669 33.0
605.606812 20.0
605.65979 26.0
605.687012 41.0
605.731873 24.0
606.103821 46.0
606.245483 21.0
606.449341 23.0
606.633667 32.0
606.837891 20.0
607.176086 20.0
607.323364 23.0
607.860046 32.0
617.062805 35.0
617.231506 21.0
617.326477 598.0
618.325684 283.0
618.430237 37.0
619.34552 98.0
622.350464 26.0
633.979248 24.0
634.292847 23.0
635.33905 299.0
636.344055 177.0
637.342224 59.0
642.382324 23.0
645.233093 20.0
679.27832 20.0
693.384155 21.0
709.298645 21.0
908.175659 25.0
916.025513 39.0
931.848816 23.0
934.534973 22.0
934.921509 20.0
939.769592 30.0
940.628601 26.0
943.353271 20.0
944.896729 21.0
945.334045 25.0
947.24762 20.0
948.512695 23.0
955.682861 20.0
956.346497 27.0
959.949036 29.0
960.742432 34.0
961.704956 23.0
963.892944 23.0
967.04071 23.0
972.345398 24.0
972.899658 24.0
976.474609 22.0
978.057312 20.0
980.906128 28.0
981.19165 30.0
983.527527 30.0
986.853638 28.0
990.73468 27.0
995.449646 21.0
995.503296 28.0
998.213745 22.0
999.400635 26.0
1001.693604 22.0
1002.808228 31.0
1002.849976 25.0
1002.979248 41.0
1003.903076 23.0
1004.143677 32.0
1004.502319 41.0
1006.644958 20.0
1006.850708 28.0
1007.079224 29.0
1009.579956 26.0
1010.239563 38.0
1011.43689 34.0
1013.041565 31.0
1013.103699 30.0
1014.005249 34.0
1014.181335 23.0
1015.128967 23.0
1018.096069 22.0
1018.364319 39.0
1019.556702 27.0
1020.380737 34.0
1020.670654 27.0
1020.713867 26.0
1023.573425 22.0
1023.618347 22.0
1025.258545 24.0
1025.389404 30.0
1026.021851 25.0
1026.602173 27.0
1028.831665 20.0
1031.319702 21.0
1031.417603 21.0
1031.665649 33.0
1032.002319 40.0
1033.56189 25.0
1037.367554 21.0
1037.448975 21.0
1038.658936 25.0
1039.813232 23.0
1040.206787 21.0
1040.413208 32.0
1041.634399 20.0
1041.893066 25.0
1044.096313 34.0
1045.419067 34.0
1046.187988 28.0
1049.155884 23.0
1051.103882 33.0
1051.81665 22.0
1052.197998 21.0
1052.855225 22.0
1052.966431 24.0
1053.681396 22.0
1056.101562 23.0
1056.265991 25.0
1057.432617 24.0
1445.370361 25.0
1743.646362 27.0
END IONS

BEGIN IONS
PEPMASS=601.361
TITLE=CCMSLIB00006584432
SPECTRUMID=CCMSLIB00006584432
COMPOUND_NAME=Trp-DCA
ADDUCT=[M+Na]1+
ION_MODE=positive
SMILES=CC(CCC(=O)NC(Cc1c[nH]c2ccccc12)C(=O)O)C1CCC2C3CCC4CC(O)CCC4(C)C3CC(O)C12C
COLLISION_ENERGY=37.0
MS_MANUFACTURER=Bruker Daltonics
96.005096 222.0
110.069427 38.0
119.090759 29.0
120.087372 20.0
125.093559 30.0
130.072754 40.0
132.082016 43.0
146.063629 23.0
147.116257 24.0
159.096329 27.0
162.140381 69.0
163.039963 36.0
165.058121 22.0
174.567947 30.0
177.754776 34.0
178.105331 30.0
178.335739 28.0
181.073975 529.0
182.061127 199.0
183.068008 40.0
185.134186 40.0
187.115891 38.0
188.073212 291.0
189.077728 30.0
190.0746 21.0
199.150375 23.0
201.164352 27.0
203.140671 33.0
205.099503 194.0
206.10144 62.0
209.091614 25.0
209.604111 22.0
209.753235 32.0
210.055161 903.0
211.057327 94.0
211.095795 25.0
212.063538 32.0
212.470795 21.0
215.177902 24.0
226.953918 25.0
227.035583 29.0
227.081467 5945.0
227.908615 28.0
228.085297 832.0
228.96019 25.0
229.084534 107.0
229.159729 33.0
229.199127 40.0
234.623108 33.0
243.180618 29.0
243.209778 43.0
245.091324 37.0
259.10675 27.0
265.183014 27.0
283.206329 27.0
287.464722 33.0
293.229767 25.0
297.223083 21.0
321.259949 93.0
323.639008 24.0
339.269257 175.0
339.842438 23.0
340.265015 22.0
348.606232 24.0
353.870361 21.0
356.303223 39.0
357.244781 21.0
358.288086 59.0
363.208984 37.0
368.499786 28.0
380.064636 20.0
389.767303 23.0
396.292419 94.0
397.198944 27.0
397.273865 3759.0
397.61499 32.0
398.002899 28.0
398.276978 1260.0
399.287354 204.0
400.296448 24.0
401.508179 24.0
401.895386 25.0
403.028809 20.0
414.303253 99.0
415.285492 1430.0
416.28714 353.0
417.288971 73.0
419.022369 20.0
424.803162 22.0
428.222931 23.0
432.306091 41.0
433.304901 188.0
434.293182 48.0
439.223175 28.0
443.771332 32.0
445.306458 21.0
449.896149 37.0
456.344696 24.0
472.307312 34.0
484.701477 23.0
489.248779 21.0
503.850464 37.0
505.215179 36.0
506.567963 29.0
509.375183 36.0
512.270203 20.0
512.330933 27.0
512.474365 20.0
519.516418 30.0
519.573792 23.0
526.330933 20.0
530.296204 22.0
531.572144 29.0
533.320435 30.0
538.265442 27.0
540.37207 21.0
542.867188 28.0
543.364929 159.0
544.360413 88.0
544.611145 25.0
544.669556 24.0
545.370483 20.0
548.909973 20.0
553.018188 40.0
554.304871 26.0
555.32251 61.0
556.359802 38.0
561.173035 31.0
562.375122 43.0
562.49939 32.0
565.341919 80.0
565.611023 21.0
566.341736 43.0
571.343689 32.0
572.068726 21.0
573.348267 51.0
574.315308 21.0
576.669373 20.0
581.299438 21.0
582.427612 22.0
583.35199 1994.0
583.459229 31.0
584.158508 26.0
584.354675 927.0
585.355286 154.0
586.366699 42.0
586.744202 24.0
587.294739 21.0
592.373901 30.0
594.942383 22.0
595.040344 29.0
596.251221 25.0
596.50116 21.0
599.122498 25.0
599.184631 25.0
599.312683 28.0
599.522522 27.0
599.587341 20.0
600.097168 20.0
600.335754 75.0
600.488098 25.0
600.70575 25.0
600.796448 43.0
600.877991 39.0
601.000854 28.0
601.096497 61.0
601.36084 55096.0
601.447205 81.0
601.507446 51.0
601.547363 72.0
601.681213 23.0
601.729797 31.0
601.918213 29.0
601.981079 45.0
602.081116 70.0
602.151001 49.0
602.364624 25753.0
602.479858 47.0
602.531677 56.0
602.663879 42.0
602.787659 20.0
602.87616 24.0
602.910095 32.0
602.94928 24.0
603.047729 27.0
603.076782 39.0
603.183411 59.0
603.236145 63.0
603.299255 44.0
603.366211 5141.0
603.537598 27.0
603.569824 31.0
603.642029 25.0
603.734375 23.0
603.849365 52.0
603.891479 20.0
603.948486 44.0
604.020203 37.0
604.365417 732.0
604.580627 34.0
604.827637 38.0
605.03186 20.0
605.149963 53.0
605.310364 43.0
605.38739 72.0
605.569885 32.0
605.62262 50.0
605.73175 52.0
605.780884 78.0
606.236938 21.0
606.299011 21.0
606.35675 29.0
606.589905 22.0
606.884033 23.0
607.550842 20.0
607.94696 21.0
617.324158 360.0
618.319946 132.0
618.678833 27.0
619.332886 45.0
619.394287 24.0
621.390808 20.0
622.210388 34.0
622.30365 23.0
626.388855 20.0
635.337769 226.0
636.341797 201.0
637.34552 40.0
640.338135 27.0
707.660767 28.0
733.296265 20.0
861.112854 20.0
874.760498 25.0
884.567383 23.0
894.2276 42.0
907.998901 35.0
912.31427 35.0
913.142273 28.0
915.028137 28.0
920.329407 25.0
920.564087 21.0
920.679138 30.0
930.767822 20.0
933.159851 34.0
943.278503 20.0
943.830688 23.0
953.15387 25.0
953.78949 35.0
955.453735 39.0
960.371826 32.0
961.037292 25.0
962.338501 21.0
968.882446 20.0
972.297668 30.0
974.174622 30.0
975.830627 20.0
977.143127 38.0
980.238708 21.0
986.448425 26.0
995.442139 22.0
996.188843 21.0
996.804565 28.0
996.931519 25.0
998.251282 23.0
1002.678101 34.0
1003.0979 28.0
1003.336365 21.0
1003.513367 23.0
1004.220398 26.0
1005.537964 24.0
1006.156982 23.0
1007.668091 33.0
1009.552429 28.0
1011.284546 21.0
1011.460754 38.0
1011.68689 31.0
1012.036621 21.0
1012.758118 28.0
1014.581543 21.0
1017.084534 29.0
1017.306274 39.0
1018.068604 22.0
1018.428284 21.0
1020.573608 22.0
1020.681458 24.0
1021.476074 36.0
1021.605713 34.0
1025.206909 24.0
1026.654541 29.0
1027.588501 27.0
1030.077759 35.0
1031.056641 29.0
1031.271606 23.0
1031.511963 36.0
1034.905273 22.0
1035.231201 26.0
1037.02002 22.0
1037.337036 24.0
1040.685181 22.0
1045.226196 27.0
1045.771606 26.0
1062.664795 31.0
1084.245361 26.0
1249.980713 21.0
1315.672852 24.0
1426.57251 20.0
END IONS

BEGIN IONS
PEPMASS=610.335
TITLE=CCMSLIB00006584490
SPECTRUMID=CCMSLIB00006584490
COMPOUND_NAME=LDOPA-gMCA
ADDUCT=[M+Na]1+
ION_MODE=positive
SMILES=CC(CCC(=O)NC(Cc1ccc(O)c(O)c1)C(=O)O)C1CCC2C3C(O)C(O)C4CC(O)CCC4(C)C3CCC12C
COLLISION_ENERGY=37.0
MS_MANUFACTURER=Bruker Daltonics
84.077759 30.0
107.045609 33.0
108.088799 26.0
111.055016 38.0
111.079803 26.0
128.063873 28.0
130.078171 46.0
131.087189 34.0
135.046127 57.0
136.03981 20.0
137.082306 32.0
139.028564 22.0
139.047836 31.0
139.089401 27.0
139.112732 34.0
142.088715 29.0
147.120697 97.0
152.07222 517.0
153.067062 52.0
154.081482 45.0
156.05191 23.0
158.117981 25.0
159.115738 36.0
160.044281 28.0
161.132202 69.0
166.062241 35.0
171.119904 72.0
173.138809 62.0
175.061798 35.0
175.117447 134.0
175.15184 28.0
176.043839 41.0
177.134537 26.0
178.06369 21.0
181.052658 350.0
182.028519 25.0
182.051254 50.0
182.08168 35.0
183.035034 24.0
183.079086 132.0
185.134064 54.0
193.015015 36.0
193.161224 25.0
197.132965 26.0
197.664642 26.0
198.077301 1264.0
199.081253 140.0
199.151566 38.0
200.110855 26.0
201.091919 27.0
204.088684 28.0
209.129791 29.0
213.169128 96.0
217.017212 20.0
217.153946 35.0
219.109741 75.0
220.061798 1047.0
220.119308 31.0
220.345047 22.0
220.938599 41.0
221.063995 167.0
222.075287 46.0
227.181396 56.0
231.178284 38.0
232.384628 28.0
238.170319 59.0
247.145844 23.0
253.216949 24.0
255.170242 29.0
256.178833 31.0
267.216217 24.0
269.133118 34.0
271.176636 29.0
271.209564 23.0
278.20047 20.0
280.108337 44.0
281.052521 27.0
288.043243 20.0
297.132141 22.0
297.261719 33.0
298.146729 29.0
307.250488 21.0
308.238739 24.0
317.276825 31.0
319.237793 79.0
320.24884 71.0
321.260559 23.0
326.259888 42.0
332.904938 21.0
333.18457 22.0
335.423981 25.0
337.256592 238.0
338.086334 23.0
338.260345 51.0
338.54718 26.0
355.255646 32.0
356.204407 22.0
356.272766 70.0
362.17923 26.0
373.175995 27.0
385.164642 24.0
386.196716 20.0
387.195648 34.0
394.276886 24.0
396.217743 23.0
398.234375 23.0
407.134766 24.0
412.282623 329.0
412.358795 28.0
413.267334 1050.0
414.234009 40.0
414.274292 257.0
414.732605 21.0
415.272614 48.0
425.216309 31.0
425.293488 22.0
428.255432 25.0
430.307159 20.0
430.847504 20.0
431.280426 474.0
432.217743 22.0
432.285278 133.0
433.050964 25.0
433.181641 24.0
433.293762 31.0
434.628204 24.0
449.297363 25.0
453.10553 21.0
453.292328 25.0
454.248047 23.0
460.319855 35.0
465.311401 21.0
468.316437 20.0
470.256226 23.0
470.544983 25.0
488.312561 34.0
506.326263 36.0
511.076477 32.0
514.333984 20.0
522.285095 36.0
522.329834 23.0
523.042358 37.0
524.345581 24.0
529.372192 23.0
534.31488 78.0
535.323059 59.0
538.221619 23.0
546.292236 81.0
547.295105 23.0
548.208191 23.0
551.304321 21.0
552.338806 156.0
553.334045 47.0
554.343689 62.0
555.268982 26.0
557.369995 43.0
561.249451 21.0
561.391541 30.0
562.255127 36.0
563.412781 26.0
564.299255 67.0
565.285034 28.0
566.266479 36.0
572.294739 34.0
578.27417 25.0
579.264038 24.0
580.660034 29.0
589.308044 30.0
589.651672 31.0
589.806335 30.0
590.282532 121.0
591.281677 64.0
592.226624 20.0
592.325928 248.0
592.789795 23.0
593.327087 55.0
601.32019 20.0
607.441772 29.0
608.215088 38.0
608.289917 439.0
608.385193 20.0
608.642883 25.0
609.301086 151.0
609.38385 30.0
610.335693 16501.0
610.523438 29.0
610.802917 35.0
611.148132 22.0
611.218323 69.0
611.339172 6252.0
611.560303 36.0
611.914429 36.0
612.243225 20.0
612.34137 1287.0
612.54541 49.0
613.290344 23.0
613.34137 114.0
614.342041 38.0
617.311218 25.0
618.323242 30.0
624.252136 23.0
625.322876 25.0
625.554871 35.0
626.300049 616.0
626.683228 49.0
627.307556 296.0
628.310303 52.0
629.051941 32.0
629.314514 37.0
630.294495 33.0
632.323608 43.0
633.334717 25.0
644.308716 553.0
645.170593 25.0
645.312561 135.0
645.661804 24.0
646.319153 90.0
648.29657 33.0
662.258118 28.0
662.326538 135.0
663.32605 242.0
679.632385 46.0
687.365723 27.0
795.403015 25.0
891.254944 30.0
918.107117 22.0
934.276245 28.0
938.747986 27.0
946.452637 29.0
947.49353 24.0
952.323364 44.0
965.194885 20.0
969.856201 36.0
992.136169 36.0
1006.737305 23.0
1015.072266 23.0
1017.231384 21.0
1018.44696 31.0
1019.073914 25.0
1019.703979 25.0
1019.957703 22.0
1028.658325 43.0
1029.100342 23.0
1030.992676 37.0
1046.710205 37.0
1048.049438 66.0
1052.710815 20.0
1054.522583 24.0
1059.653931 26.0
1066.936646 29.0
1067.754639 20.0
1083.718628 34.0
END IONS

BEGIN IONS
PEPMASS=617.356
TITLE=CCMSLIB00006584521
SPECTRUMID=CCMSLIB00006584521
COMPOUND_NAME=Trp-gMCA
ADDUCT=[M+Na]1+
ION_MODE=positive
SMILES=CC(CCC(=O)NC(Cc1c[nH]c2ccccc12)C(=O)O)C1CCC2C3C(O)C(O)C4CC(O)CCC4(C)C3CCC12C
COLLISION_ENERGY=37.0
MS_MANUFACTURER=Bruker Daltonics
85.062683 31.0
86.040848 31.0
86.088493 27.0
93.067451 24.0
96.006485 42.0
106.989548 29.0
108.05481 141.0
109.06073 29.0
109.077179 48.0
110.07225 60.0
112.085114 68.0
115.084518 41.0
120.079987 23.0
121.069725 51.0
121.103279 29.0
122.102318 27.0
122.672592 22.0
125.994499 54.0
126.063965 42.0
130.06601 133.0
131.083679 40.0
132.099594 21.0
133.099976 29.0
135.115982 26.0
136.047653 26.0
136.087296 277.0
137.057724 31.0
138.066772 94.0
138.101395 54.0
139.620041 25.0
144.080856 49.0
144.957901 29.0
145.109451 56.0
145.954819 20.0
146.058578 41.0
147.12204 43.0
148.040176 42.0
152.046265 30.0
152.069672 47.0
154.060272 76.0
157.106781 21.0
159.091934 473.0
159.118256 78.0
160.085526 21.0
161.13678 39.0
163.138718 23.0
164.138611 48.0
167.07489 26.0
167.997009 48.0
169.401474 26.0
171.116913 29.0
174.095566 22.0
175.110306 34.0
175.28299 36.0
175.985367 36.0
178.065063 29.0
178.134705 33.0
180.076508 347.0
181.075058 62.0
182.060135 222.0
182.09465 128.0
183.059372 35.0
183.152023 30.0
184.114365 56.0
185.132812 50.0
185.179443 44.0
185.960892 38.0
186.12532 78.0
186.963516 27.0
187.065643 63.0
187.088226 51.0
188.07222 826.0
189.078262 208.0
189.134689 25.0
190.077194 28.0
191.070068 21.0
198.05397 172.0
199.147964 50.0
200.13414 34.0
202.120636 60.0
204.971451 40.0
205.099976 809.0
205.990509 30.0
206.103012 94.0
209.086288 42.0
209.222427 20.0
210.054337 574.0
210.087509 23.0
211.061203 108.0
211.140594 32.0
212.913727 27.0
213.121399 30.0
218.024338 37.0
223.148529 34.0
226.021286 39.0
226.084305 1790.0
226.176376 23.0
226.713135 27.0
226.976074 50.0
227.082123 3227.0
227.180283 31.0
227.61972 32.0
227.92276 25.0
227.959183 21.0
228.083725 362.0
229.101654 29.0
232.920013 20.0
240.194824 34.0
244.92923 29.0
245.937943 29.0
247.938248 23.0
248.917053 31.0
248.986176 25.0
252.187057 90.0
252.994278 24.0
253.193192 38.0
254.971039 23.0
255.182312 28.0
263.170837 36.0
263.919281 34.0
265.942261 38.0
267.058167 36.0
267.114502 34.0
267.943939 34.0
268.094055 26.0
268.929962 66.0
268.988861 31.0
269.938995 70.0
270.193085 50.0
270.971893 50.0
271.945343 22.0
273.935059 23.0
274.937469 48.0
279.160004 20.0
285.955872 20.0
289.945343 118.0
290.929779 79.0
291.001984 40.0
291.948608 54.0
292.930511 20.0
295.209412 28.0
309.237976 31.0
309.951691 26.0
310.271301 27.0
310.932678 47.0
311.97641 34.0
312.941803 25.0
319.245758 45.0
320.244781 33.0
321.249908 29.0
331.240387 27.0
331.955505 243.0
332.995667 26.0
333.950867 45.0
337.256592 149.0
338.256683 71.0
339.182007 22.0
339.264526 45.0
340.985535 28.0
347.972382 24.0
349.970764 35.0
350.178314 28.0
351.958527 70.0
352.937225 57.0
353.162476 22.0
353.959564 59.0
355.269226 56.0
356.275146 42.0
365.191437 27.0
368.209656 29.0
371.014282 26.0
371.317444 28.0
371.9664 30.0
373.969879 77.0
375.25116 36.0
389.735474 40.0
391.980133 28.0
393.973785 175.0
395.240784 32.0
395.968323 86.0
397.655518 21.0
408.809387 21.0
411.581879 20.0
411.982758 52.0
412.283936 188.0
413.268433 698.0
413.981689 90.0
414.273926 153.0
415.891907 37.0
415.975433 131.0
416.960266 61.0
420.217255 23.0
420.259094 33.0
425.361053 40.0
428.254089 36.0
430.180603 22.0
430.293121 106.0
431.275787 525.0
432.283081 93.0
434.217224 29.0
434.939636 29.0
442.225159 21.0
442.302948 23.0
443.17038 26.0
443.297485 27.0
444.216949 20.0
446.268585 21.0
448.29953 22.0
449.286682 53.0
455.984283 190.0
456.248566 23.0
456.989624 39.0
457.314911 26.0
457.987579 61.0
458.969635 42.0
460.251465 29.0
464.275116 25.0
470.227112 28.0
470.266693 22.0
473.881226 27.0
475.990875 304.0
476.25946 45.0
477.986816 196.0
478.991028 55.0
485.343475 27.0
485.801849 38.0
486.25473 23.0
486.352661 21.0
488.361664 34.0
494.014313 56.0
495.341248 62.0
496.283447 29.0
500.321686 25.0
501.387115 23.0
502.213837 26.0
502.656769 46.0
510.338318 25.0
511.270386 26.0
513.345947 71.0
515.358948 22.0
522.247314 24.0
522.277527 25.0
523.320129 33.0
525.037231 21.0
529.377258 294.0
530.376526 41.0
531.237183 25.0
531.339661 30.0
532.239502 32.0
540.007202 718.0
540.106018 26.0
540.439331 24.0
541.005432 21.0
541.347534 119.0
542.295837 31.0
542.342712 82.0
543.344177 58.0
545.363647 20.0
551.247681 24.0
553.037659 35.0
553.313965 62.0
554.339233 28.0
555.355286 71.0
558.012817 322.0
559.354309 64.0
560.356018 92.0
561.362793 47.0
561.745544 26.0
568.296021 29.0
569.307373 48.0
571.261414 26.0
571.325623 186.0
572.32196 75.0
572.567078 41.0
575.035461 23.0
578.359863 34.0
580.328735 24.0
591.623413 27.0
593.300964 27.0
597.280823 30.0
597.321289 32.0
597.8302 30.0
598.290283 25.0
598.355408 27.0
599.215698 29.0
599.340637 220.0
600.232422 20.0
600.294006 28.0
600.347107 160.0
601.34198 67.0
603.31189 25.0
606.024109 20.0
610.477966 34.0
611.406677 22.0
613.273193 40.0
613.337646 32.0
614.022034 35.0
615.121338 46.0
615.321472 116.0
615.395264 35.0
616.311584 65.0
616.339905 81.0
616.403625 39.0
616.703491 26.0
616.752197 38.0
616.977295 46.0
617.151917 105.0
617.356262 17321.0
617.507568 34.0
617.633484 38.0
618.106506 72.0
618.205688 54.0
618.281311 64.0
618.358704 8594.0
618.479797 36.0
619.364319 1772.0
619.459961 49.0
619.526001 26.0
620.361267 247.0
620.625977 23.0
621.369995 39.0
621.725159 20.0
621.768005 24.0
621.858826 30.0
622.02887 4570.0
622.129639 22.0
622.414856 35.0
622.664856 24.0
623.029419 134.0
625.422119 23.0
625.88385 21.0
631.272522 29.0
632.2771 23.0
633.318726 1045.0
634.23761 25.0
634.325439 412.0
634.559509 34.0
635.318115 77.0
636.302063 26.0
649.345093 26.0
651.333069 22.0
652.3302 67.0
719.284302 50.0
786.86554 33.0
827.575806 21.0
899.339233 23.0
913.062622 20.0
970.279358 24.0
980.927185 24.0
990.481567 23.0
993.775452 28.0
1000.440857 22.0
1000.895874 26.0
1001.005249 21.0
1021.850342 22.0
1022.343323 31.0
1023.148682 20.0
1026.206177 28.0
1028.914673 29.0
1031.041504 32.0
1032.095459 34.0
1033.539795 26.0
1033.890625 38.0
1036.777954 47.0
1037.100342 34.0
1042.633911 23.0
1045.265625 21.0
1048.200806 26.0
1050.310791 23.0
1057.54834 28.0
1065.773315 20.0
1067.21582 27.0
1075.856079 20.0
1076.300171 29.0
1081.115112 36.0
1081.631836 36.0
1083.640991 29.0
1087.554932 46.0
1098.47229 23.0
1149.979492 39.0
1215.841431 21.0
END IONS

BEGIN IONS
PEPMASS=610.335
TITLE=CCMSLIB00006584580
SPECTRUMID=CCMSLIB00006584580
COMPOUND_NAME=LDOPA-gMCA
ADDUCT=[M+Na]1+
ION_MODE=positive
SMILES=CC(CCC(=O)NC(Cc1ccc(O)c(O)c1)C(=O)O)C1CCC2C3C(O)C(O)C4CC(O)CCC4(C)C3CCC12C
COLLISION_ENERGY=37.0
MS_MANUFACTURER=Bruker Daltonics
86.091515 24.0
107.058144 31.0
109.100609 37.0
110.033073 30.0
110.072838 54.0
111.053261 33.0
112.074554 39.0
121.090233 34.0
123.080627 57.0
123.339417 22.0
129.074249 33.0
134.059296 25.0
135.043167 95.0
135.113922 29.0
137.361603 23.0
139.036865 34.0
140.041718 32.0
141.073364 37.0
147.117157 137.0
149.135483 49.0
152.071854 920.0
153.076126 107.0
159.116074 100.0
160.043365 32.0
160.073547 29.0
161.133575 49.0
163.04068 58.0
163.113388 30.0
173.133041 57.0
174.047989 33.0
175.006607 24.0
175.073456 22.0
175.124374 61.0
177.12529 84.0
181.051315 632.0
182.055008 90.0
183.08313 203.0
185.1306 71.0
187.379456 24.0
187.92308 20.0
188.09317 23.0
190.164902 21.0
191.143723 53.0
192.998611 37.0
193.02681 51.0
197.125259 34.0
197.861511 29.0
198.078812 2384.0
198.231293 26.0
199.046051 27.0
199.082916 164.0
199.143478 43.0
200.110489 26.0
200.146332 33.0
201.16629 48.0
202.144775 22.0
202.171616 32.0
203.034775 23.0
203.182693 25.0
203.44516 33.0
206.102478 22.0
207.081131 21.0
213.135544 27.0
213.181381 52.0
214.166977 26.0
215.103256 31.0
215.184937 27.0
217.118332 24.0
217.158234 27.0
219.110092 199.0
219.867188 40.0
220.060776 1206.0
221.062729 230.0
223.151337 117.0
227.147064 29.0
227.179184 37.0
229.186142 34.0
231.112076 28.0
235.311951 25.0
238.071304 52.0
243.181442 28.0
245.19635 22.0
254.200043 23.0
255.172531 75.0
271.114349 33.0
271.207062 24.0
279.216705 39.0
280.122803 80.0
281.115997 33.0
293.232758 40.0
309.26181 102.0
315.157135 24.0
319.246246 191.0
320.242218 71.0
323.069519 20.0
327.272919 41.0
327.406006 30.0
331.176697 21.0
337.254578 372.0
338.258698 126.0
339.277618 39.0
340.173431 27.0
343.266327 31.0
352.334229 23.0
355.2659 137.0
356.265015 52.0
361.176331 20.0
361.797607 22.0
372.135284 30.0
372.181641 26.0
386.201111 24.0
395.267792 32.0
396.172943 26.0
408.245972 31.0
411.847534 24.0
412.216217 29.0
412.285706 450.0
413.270721 962.0
413.651459 28.0
414.194031 24.0
414.270782 350.0
414.937408 20.0
415.233459 49.0
415.28244 51.0
426.228394 24.0
430.261108 20.0
430.296631 116.0
431.192993 29.0
431.279053 663.0
431.492218 24.0
432.281311 152.0
432.99939 22.0
433.28833 57.0
434.254425 46.0
444.181091 21.0
446.245239 32.0
448.252106 26.0
449.290863 77.0
450.292358 47.0
465.320984 27.0
466.312439 25.0
470.235657 34.0
470.302368 22.0
473.263916 33.0
478.306763 21.0
480.195282 30.0
480.261536 21.0
482.292725 27.0
488.327515 20.0
490.266235 22.0
494.978607 25.0
506.326477 34.0
507.312653 49.0
507.368774 22.0
512.205383 34.0
514.090515 22.0
515.173157 24.0
516.504211 27.0
517.292236 21.0
517.339233 27.0
519.77478 24.0
520.248596 30.0
521.978149 28.0
528.273621 50.0
529.272339 25.0
532.565674 34.0
534.324219 271.0
535.33136 81.0
536.331726 53.0
537.148865 21.0
542.13916 30.0
544.269348 40.0
545.268311 28.0
546.281738 77.0
547.289856 36.0
548.320007 20.0
548.693298 23.0
548.906799 20.0
549.558411 20.0
550.330933 26.0
551.83374 28.0
552.332031 495.0
553.343323 110.0
554.327942 40.0
555.395935 32.0
555.94043 30.0
556.382996 24.0
561.257935 32.0
562.395081 24.0
564.307312 188.0
565.320129 22.0
565.37085 34.0
567.377686 21.0
568.724915 21.0
571.33667 22.0
572.273438 45.0
573.370544 24.0
576.274841 34.0
580.281006 35.0
580.326355 27.0
580.806702 28.0
584.786194 40.0
586.303101 39.0
588.268555 22.0
589.292786 31.0
589.819214 75.0
590.205627 21.0
590.287659 116.0
590.387573 23.0
591.284302 134.0
592.149597 35.0
592.327637 278.0
593.065369 27.0
593.331848 114.0
594.301941 20.0
595.266968 22.0
596.287842 27.0
598.820984 31.0
600.187988 21.0
602.335449 28.0
602.433167 23.0
603.29126 27.0
607.341492 79.0
607.463928 37.0
607.826172 37.0
608.288269 920.0
608.357788 51.0
608.420959 27.0
609.298035 322.0
609.376892 119.0
609.777954 32.0
610.094543 43.0
610.226746 111.0
610.335999 21010.0
610.433655 99.0
610.492249 34.0
610.609253 28.0
611.080444 60.0
611.224854 117.0
611.339111 9547.0
611.638367 27.0
611.947815 28.0
612.257507 40.0
612.341431 1838.0
612.605042 27.0
613.340515 271.0
613.629761 26.0
613.943787 26.0
614.01062 31.0
614.175537 34.0
614.298035 30.0
614.824646 38.0
615.363098 21.0
616.298401 23.0
616.351135 28.0
616.683044 25.0
619.660583 25.0
623.262573 44.0
626.298279 1410.0
626.404114 34.0
626.650574 22.0
627.304993 485.0
627.664368 24.0
628.129333 26.0
628.299377 84.0
629.302124 20.0
630.290894 37.0
630.356628 20.0
631.302429 23.0
633.330933 27.0
634.325195 26.0
634.415527 20.0
635.302795 25.0
643.276978 27.0
644.312378 1063.0
644.566345 25.0
644.610291 21.0
645.312439 391.0
645.704041 27.0
646.294739 68.0
646.333679 65.0
646.512512 32.0
648.311951 78.0
649.296753 24.0
653.596619 43.0
656.067566 33.0
658.28302 20.0
660.290588 54.0
662.321777 591.0
663.325256 191.0
664.335876 95.0
665.337219 53.0
666.352966 28.0
667.095276 28.0
732.347107 32.0
747.41217 24.0
752.877075 36.0
818.207275 34.0
927.664978 22.0
935.273865 20.0
946.280762 21.0
951.919922 25.0
960.056152 35.0
980.56134 41.0
982.548523 20.0
993.580872 33.0
999.546936 23.0
1003.875977 24.0
1012.768311 54.0
1012.857422 38.0
1020.101074 36.0
1020.548523 27.0
1021.966675 20.0
1028.117798 30.0
1028.687622 21.0
1030.576904 22.0
1032.543945 28.0
1039.047119 20.0
1039.458374 24.0
1040.676514 34.0
1046.519775 24.0
1046.816406 28.0
1049.187744 25.0
1049.815063 20.0
1051.78064 32.0
1055.099365 30.0
1063.502808 35.0
1069.869995 32.0
1070.733643 31.0
1090.809326 34.0
1143.623535 22.0
1352.763916 37.0
1567.533691 30.0
1726.587402 46.0
END IONS

BEGIN IONS
PEPMASS=617.356
TITLE=CCMSLIB00006584610
SPECTRUMID=CCMSLIB00006584610
COMPOUND_NAME=Trp-gMCA
ADDUCT=[M+Na]1+
ION_MODE=positive
SMILES=CC(CCC(=O)NC(Cc1c[nH]c2ccccc12)C(=O)O)C1CCC2C3C(O)C(O)C4CC(O)CCC4(C)C3CCC12C
COLLISION_ENERGY=37.0
MS_MANUFACTURER=Bruker Daltonics
76.120438 23.0
83.08577 23.0
85.673866 31.0
87.091019 33.0
95.060463 53.0
96.003571 169.0
97.008286 25.0
97.038155 30.0
97.072174 124.0
98.057884 75.0
98.079208 55.0
98.888168 21.0
103.001122 38.0
105.068832 30.0
106.045052 26.0
108.053856 38.0
112.087082 490.0
113.082619 28.0
114.103203 886.0
115.087532 707.0
115.156654 40.0
116.083717 28.0
117.069695 31.0
123.085541 30.0
123.992828 24.0
124.081757 56.0
125.075165 34.0
125.989571 30.0
130.065918 47.0
130.098404 314.0
132.078064 89.0
135.047394 69.0
135.114273 22.0
136.05188 44.0
136.087738 25.0
136.690704 24.0
138.067673 674.0
138.098099 24.0
138.440613 41.0
139.070404 127.0
139.101334 23.0
140.082581 322.0
141.08696 69.0
143.127182 24.0
144.102036 21.0
145.101517 67.0
146.061462 45.0
147.012314 32.0
147.12027 55.0
149.134323 51.0
152.073166 146.0
153.107132 22.0
154.061264 24.0
155.094666 110.0
156.078354 30.0
157.080017 50.0
157.110794 111.0
158.094299 223.0
159.093613 280.0
159.120972 21.0
160.093933 58.0
161.13092 66.0
162.273422 29.0
162.331451 28.0
166.062561 31.0
167.072525 21.0
169.07637 29.0
173.092056 34.0
173.134964 75.0
175.112595 41.0
175.148041 30.0
176.195847 25.0
179.070053 34.0
181.082306 75.0
182.058945 207.0
182.093262 24.0
182.192657 22.0
183.063354 27.0
183.090714 214.0
184.045242 28.0
184.071625 65.0
184.109467 587.0
185.984619 22.0
186.126831 422.0
186.960709 25.0
187.068283 43.0
187.131592 34.0
188.073517 737.0
188.821396 25.0
189.076096 138.0
189.131561 31.0
189.164261 24.0
194.045593 31.0
195.054718 24.0
196.069824 24.0
196.142456 27.0
197.137436 29.0
198.076416 22.0
199.150543 51.0
200.127274 33.0
201.172134 23.0
201.547195 23.0
202.08461 20.0
202.122162 406.0
203.121429 37.0
204.126678 23.0
204.252579 20.0
205.099045 743.0
205.278397 25.0
205.839539 21.0
206.10144 87.0
207.117371 20.0
207.844559 21.0
208.963425 31.0
209.079834 20.0
209.132141 25.0
210.054489 643.0
211.064255 47.0
211.144379 32.0
212.105103 36.0
213.176468 59.0
215.146881 61.0
215.17926 22.0
219.132828 32.0
221.139328 26.0
223.146942 86.0
225.137222 38.0
225.163239 61.0
226.087311 202.0
226.110001 197.0
226.170425 24.0
227.08168 2644.0
227.96431 28.0
228.085617 309.0
228.499176 36.0
229.132034 200.0
229.758865 24.0
229.924133 30.0
230.119186 31.0
231.127106 65.0
237.169632 26.0
239.098114 21.0
239.186508 26.0
241.123016 34.0
241.158981 40.0
243.180496 35.0
243.944183 47.0
244.176086 24.0
245.086884 35.0
245.942413 21.0
248.712753 24.0
248.986816 33.0
249.168396 45.0
251.159943 23.0
252.352203 28.0
255.127518 29.0
258.194946 28.0
265.197815 23.0
268.942291 25.0
269.960999 29.0
270.207489 36.0
270.985687 24.0
271.189178 27.0
271.929474 21.0
276.433319 30.0
277.194122 58.0
282.256073 21.0
285.642426 38.0
286.931732 25.0
287.141846 78.0
287.952759 24.0
288.944763 31.0
289.14447 20.0
289.945221 53.0
290.004089 29.0
290.927277 55.0
291.225067 25.0
291.943542 66.0
303.077362 32.0
309.142273 36.0
309.263794 51.0
310.268463 24.0
311.957214 23.0
319.246185 120.0
325.258545 45.0
325.594727 40.0
327.250702 36.0
329.95578 103.0
331.963593 57.0
332.862244 29.0
332.940643 38.0
333.950287 48.0
336.944275 29.0
337.254639 271.0
338.258392 139.0
348.394745 25.0
349.957123 26.0
350.949005 20.0
351.959106 92.0
352.875549 29.0
352.943237 21.0
353.962036 52.0
354.291718 25.0
355.270172 101.0
356.298798 24.0
372.950378 25.0
379.231262 36.0
385.21698 25.0
388.207642 22.0
389.63089 33.0
391.918854 21.0
391.965546 23.0
393.110718 28.0
393.972595 279.0
394.22406 20.0
394.283508 21.0
395.159576 28.0
395.969055 37.0
396.942902 21.0
398.106567 30.0
403.578125 21.0
409.192444 25.0
409.773163 24.0
411.984802 51.0
412.283142 143.0
413.267242 574.0
413.508759 28.0
413.977203 157.0
414.268951 168.0
415.978088 147.0
418.187683 25.0
419.227692 20.0
426.318268 41.0
429.182281 31.0
429.391785 25.0
430.292175 99.0
431.115173 47.0
431.277802 526.0
431.320587 42.0
431.979675 22.0
432.195679 24.0
432.281586 42.0
432.432831 33.0
433.983795 20.0
434.615845 21.0
444.487915 20.0
447.323517 31.0
448.312347 22.0
449.289154 52.0
451.339417 193.0
452.352692 76.0
454.179688 26.0
455.988831 199.0
456.316895 20.0
456.995758 41.0
457.988922 66.0
458.3172 26.0
458.967529 22.0
460.295959 27.0
466.292297 30.0
467.374512 31.0
468.188568 25.0
468.363342 44.0
469.349121 254.0
470.34787 62.0
471.352814 34.0
472.226501 21.0
474.327026 25.0
475.314941 36.0
475.993774 294.0
476.30481 24.0
477.995544 392.0
478.977753 40.0
484.350739 25.0
485.377563 147.0
486.386505 44.0
487.35672 121.0
488.282715 22.0
488.352905 81.0
492.21817 21.0
493.353149 78.0
494.343994 39.0
496.002045 56.0
496.349426 24.0
498.021942 20.0
499.346436 26.0
501.367157 46.0
501.397217 46.0
502.387054 31.0
504.376404 50.0
506.322479 29.0
509.355042 71.0
510.28418 21.0
511.363098 461.0
512.368713 130.0
512.656616 21.0
513.222473 21.0
513.351562 172.0
514.220154 59.0
515.232056 21.0
519.338806 70.0
519.998352 53.0
522.272766 20.0
524.343384 24.0
527.360474 81.0
527.85199 24.0
528.141296 25.0
529.322144 131.0
529.375671 5410.0
530.079895 27.0
530.378601 1711.0
531.289856 24.0
531.374756 291.0
531.583313 26.0
532.231506 48.0
532.338745 21.0
532.38916 77.0
533.305969 21.0
534.276733 38.0
537.345642 153.0
538.350891 78.0
539.273193 21.0
540.006775 735.0
540.287964 24.0
540.37323 22.0
541.013733 25.0
541.349854 50.0
545.755676 32.0
551.356995 20.0
551.802856 29.0
551.864563 21.0
552.457336 22.0
553.115845 29.0
553.304382 38.0
553.338318 41.0
554.356018 35.0
555.299011 20.0
555.359314 209.0
555.958313 25.0
556.053406 24.0
556.355286 38.0
557.357117 42.0
557.878357 28.0
558.020203 267.0
558.380005 46.0
558.576416 26.0
559.349365 163.0
560.021729 29.0
560.099976 21.0
560.360901 81.0
561.358521 33.0
564.320618 24.0
565.389099 29.0
569.245361 24.0
569.281677 38.0
570.310669 20.0
571.322327 119.0
572.323914 40.0
572.358032 30.0
573.36438 148.0
574.372742 84.0
575.413879 49.0
576.3172 31.0
577.298828 25.0
577.36792 37.0
578.372437 45.0
578.438232 20.0
583.376343 60.0
583.76062 39.0
584.399902 77.0
584.841736 21.0
587.305664 25.0
588.796326 34.0
588.828735 35.0
589.320374 36.0
595.265015 20.0
596.370239 31.0
596.832581 36.0
597.292847 66.0
597.546875 25.0
599.345886 368.0
600.345215 118.0
601.339355 45.0
601.391602 108.0
602.026001 72.0
602.393921 25.0
602.998901 20.0
603.307739 46.0
603.529602 39.0
603.865112 24.0
604.462036 20.0
605.006592 25.0
605.346375 34.0
606.429749 23.0
606.583374 31.0
608.471313 23.0
610.04364 22.0
610.369141 46.0
614.390015 43.0
615.25708 34.0
615.310852 239.0
615.398621 65.0
615.555786 25.0
615.824524 29.0
616.266479 29.0
616.331665 51.0
616.390564 36.0
616.756775 22.0
616.968262 23.0
617.097412 30.0
617.224609 148.0
617.356323 23412.0
617.469238 41.0
617.5849 24.0
617.805298 27.0
618.039124 21.0
618.154907 23.0
618.359985 10032.0
618.701111 36.0
618.779663 20.0
618.816589 27.0
619.246887 44.0
619.294373 25.0
619.36322 2085.0
619.404114 2290.0
619.666748 22.0
619.736511 21.0
619.993164 30.0
620.264343 33.0
620.370544 378.0
620.404663 550.0
621.350708 26.0
621.417053 79.0
621.760803 43.0
621.914612 31.0
622.029724 5729.0
622.219543 22.0
622.273376 26.0
622.429993 50.0
623.040161 220.0
625.219727 28.0
625.606689 28.0
628.283142 38.0
631.269775 55.0
633.114929 26.0
633.170959 22.0
633.251831 36.0
633.32312 1298.0
634.320862 594.0
635.328491 99.0
635.362976 73.0
637.304749 21.0
638.295105 46.0
640.018616 20.0
640.161255 23.0
640.317871 22.0
641.31134 20.0
649.292908 39.0
651.326782 90.0
652.334351 40.0
655.258789 23.0
657.185913 21.0
669.337646 54.0
753.140808 27.0
771.98175 30.0
793.376038 27.0
859.105957 32.0
866.525146 28.0
874.445618 33.0
895.848206 20.0
922.670349 20.0
929.964355 30.0
950.65155 30.0
953.062439 50.0
957.055481 21.0
961.566528 32.0
963.14978 27.0
992.990662 21.0
997.338379 33.0
1001.875244 29.0
1004.934265 20.0
1006.481567 31.0
1009.516174 39.0
1027.724609 40.0
1030.516357 36.0
1031.887695 31.0
1033.661011 24.0
1036.220093 35.0
1037.838379 32.0
1039.317261 40.0
1041.627319 21.0
1046.66626 27.0
1052.359375 27.0
1053.567383 23.0
1055.245361 32.0
1056.480713 22.0
1056.894775 44.0
1061.370972 28.0
1062.474731 24.0
1064.282837 37.0
1065.14978 24.0
1072.951416 25.0
1078.412964 31.0
1078.88562 43.0
1085.122925 38.0
1738.298096 21.0
1794.027832 24.0
END IONS

BEGIN IONS
PEPMASS=601.361
TITLE=CCMSLIB00006584707
SPECTRUMID=CCMSLIB00006584707
COMPOUND_NAME=Trp-HDCA
ADDUCT=[M+Na]1+
ION_MODE=positive
SMILES=CC(CCC(=O)NC(Cc1c[nH]c2ccccc12)C(=O)O)C1CCC2C3CC(O)C4CC(O)CCC4(C)C3CCC12C
COLLISION_ENERGY=37.0
MS_MANUFACTURER=Bruker Daltonics
81.06591 58.0
85.605446 38.0
86.099365 33.0
95.08284 31.0
96.003685 150.0
100.076622 25.0
107.08606 27.0
112.037117 38.0
118.062828 47.0
118.081017 40.0
119.068222 23.0
120.275963 24.0
122.085129 30.0
125.095955 27.0
130.063156 28.0
133.103333 39.0
135.114838 29.0
136.073196 30.0
137.077377 28.0
144.081436 35.0
146.060089 62.0
147.1185 45.0
149.133957 49.0
151.07724 36.0
159.093491 155.0
159.12056 20.0
161.133682 87.0
162.1409 53.0
163.115265 21.0
173.131271 20.0
175.113953 33.0
175.14946 57.0
177.127472 28.0
180.126694 36.0
181.049637 49.0
181.074783 210.0
182.058182 272.0
182.078934 131.0
184.098038 23.0
186.888885 35.0
187.059677 20.0
187.153076 46.0
187.805954 21.0
188.071838 453.0
189.069885 22.0
189.164948 36.0
190.315018 26.0
191.468781 20.0
198.624512 24.0
199.30928 29.0
200.088409 37.0
201.167328 56.0
205.099075 436.0
205.134567 27.0
205.161453 23.0
206.101837 54.0
209.087219 25.0
210.05484 775.0
211.058792 57.0
211.156097 40.0
212.148727 23.0
213.10289 24.0
213.159927 55.0
215.180237 26.0
224.072495 38.0
226.098923 24.0
227.081024 3996.0
227.131256 20.0
228.087082 555.0
229.159164 63.0
230.157333 26.0
231.175934 53.0
233.060806 69.0
237.168289 37.0
239.091827 25.0
240.190338 31.0
241.196228 22.0
244.03952 29.0
245.091614 33.0
254.194595 30.0
255.176071 34.0
266.020935 24.0
291.220703 31.0
295.11145 22.0
295.199219 27.0
297.237701 32.0
297.998383 20.0
301.168182 34.0
307.580383 22.0
310.221222 24.0
313.148193 23.0
317.145325 26.0
321.2547 94.0
337.198639 41.0
337.822418 34.0
339.271423 264.0
340.264862 44.0
341.190674 23.0
341.277496 36.0
357.284973 47.0
381.205719 37.0
393.20575 26.0
394.251923 21.0
395.209167 23.0
396.284058 34.0
397.284912 80.0
407.215942 23.0
407.268127 31.0
407.623474 28.0
408.915924 20.0
409.263336 31.0
412.254333 21.0
412.505859 20.0
414.314606 26.0
415.270874 24.0
415.310242 23.0
416.433105 31.0
425.256348 34.0
426.299744 21.0
427.267578 29.0
432.316254 27.0
436.317841 23.0
437.18219 43.0
439.176697 20.0
444.280823 26.0
449.817047 22.0
457.193268 28.0
472.348846 31.0
474.293884 31.0
475.552734 24.0
476.001923 24.0
477.286407 23.0
489.277649 27.0
499.341919 24.0
499.507751 27.0
503.234192 36.0
514.317139 43.0
517.236511 24.0
526.297668 65.0
527.301697 54.0
528.327026 33.0
528.360901 28.0
529.331848 25.0
530.138672 20.0
536.262085 32.0
537.317017 72.0
537.379639 34.0
539.27356 22.0
539.368408 25.0
540.372986 46.0
540.66687 25.0
541.654114 31.0
543.356628 283.0
544.318237 74.0
544.358704 187.0
545.372131 47.0
547.204834 20.0
548.305969 28.0
553.287537 31.0
553.328735 27.0
555.272827 52.0
555.328125 122.0
556.30957 30.0
557.355469 30.0
562.352722 44.0
563.304932 21.0
565.084839 30.0
565.348389 28.0
565.835876 39.0
566.349976 22.0
571.31842 82.0
572.321899 24.0
572.83551 27.0
573.327942 123.0
574.350342 97.0
575.345581 28.0
580.302002 33.0
581.294006 84.0
581.327209 56.0
582.313599 22.0
583.351868 569.0
584.27594 30.0
584.35022 279.0
585.358643 39.0
586.350708 27.0
592.037659 32.0
592.409058 52.0
593.05481 24.0
594.401245 21.0
595.304688 26.0
595.497742 23.0
597.280334 25.0
599.244934 44.0
599.315125 452.0
600.324341 235.0
600.442749 28.0
600.684509 26.0
600.769531 45.0
600.943787 40.0
601.065796 38.0
601.105042 58.0
601.168762 35.0
601.237549 102.0
601.361145 32647.0
601.575317 53.0
601.663391 21.0
601.980469 20.0
602.022217 42.0
602.121887 20.0
602.364197 14499.0
602.600281 32.0
602.966064 46.0
603.06958 28.0
603.269958 59.0
603.367432 2946.0
603.774292 20.0
604.026611 31.0
604.098022 24.0
604.156372 21.0
604.317627 55.0
604.36853 429.0
604.478638 22.0
604.611694 29.0
605.36908 33.0
605.535706 44.0
605.621765 34.0
605.68573 25.0
605.820374 37.0
606.197571 29.0
606.428345 22.0
608.378296 22.0
613.293213 27.0
617.247314 44.0
617.329102 525.0
618.329407 145.0
620.331177 47.0
620.373596 46.0
621.312195 24.0
634.335083 25.0
634.425598 25.0
635.332397 62.0
651.296753 22.0
685.777283 36.0
837.752625 52.0
885.378296 22.0
901.495056 30.0
904.394531 34.0
933.033569 26.0
937.764648 21.0
941.420776 20.0
943.680237 21.0
944.202515 40.0
948.649231 20.0
958.109802 20.0
971.970825 20.0
973.360168 30.0
975.562195 21.0
975.928589 28.0
976.538635 28.0
984.343079 22.0
988.8479 25.0
999.1026 24.0
1002.638916 25.0
1005.1745 26.0
1006.337585 29.0
1006.713928 23.0
1008.464294 57.0
1008.95929 22.0
1009.596497 20.0
1009.978455 40.0
1010.142639 20.0
1010.685486 31.0
1011.257385 34.0
1011.959839 28.0
1014.02594 28.0
1014.83844 31.0
1015.709045 27.0
1018.840454 27.0
1021.730164 20.0
1021.808655 29.0
1022.761902 21.0
1023.149841 32.0
1023.653503 27.0
1024.689697 27.0
1026.623535 25.0
1028.625488 25.0
1031.680298 23.0
1035.70813 24.0
1041.600342 30.0
1047.657471 22.0
1050.678833 27.0
1051.466553 23.0
1546.017456 29.0
1559.410278 20.0
END IONS

BEGIN IONS
PEPMASS=601.361
TITLE=CCMSLIB00006584802
SPECTRUMID=CCMSLIB00006584802
COMPOUND_NAME=Trp-HDCA
ADDUCT=[M+Na]1+
ION_MODE=positive
SMILES=CC(CCC(=O)NC(Cc1c[nH]c2ccccc12)C(=O)O)C1CCC2C3CC(O)C4CC(O)CCC4(C)C3CCC12C
COLLISION_ENERGY=37.0
MS_MANUFACTURER=Bruker Daltonics
81.066376 24.0
83.081497 36.0
91.053169 38.0
93.065483 28.0
95.081352 32.0
96.004799 116.0
97.062714 22.0
100.075073 25.0
107.08564 21.0
116.71106 22.0
125.098015 33.0
130.069626 112.0
131.085785 28.0
132.08522 32.0
135.116241 38.0
136.117981 33.0
145.106049 28.0
146.061859 55.0
149.098602 26.0
149.133514 152.0
157.098236 20.0
159.093628 93.0
160.094574 24.0
161.090622 23.0
163.073151 25.0
163.110291 34.0
163.151001 31.0
166.057739 27.0
169.100906 23.0
171.058517 23.0
175.114273 22.0
175.148438 34.0
176.116882 32.0
177.123978 83.0
177.166519 37.0
181.073441 162.0
182.058548 270.0
183.051468 33.0
185.131531 47.0
187.086838 33.0
188.073532 709.0
189.0802 86.0
190.080902 22.0
191.147293 36.0
199.091324 24.0
199.142639 32.0
201.166672 50.0
205.099747 503.0
205.158585 25.0
206.104034 116.0
207.107208 50.0
208.583893 33.0
209.071411 20.0
209.131302 26.0
210.054474 1012.0
211.056122 110.0
211.152847 88.0
211.340454 27.0
212.06041 27.0
213.166885 31.0
215.181107 71.0
225.164307 21.0
227.019989 21.0
227.081573 4302.0
227.189896 37.0
227.474869 42.0
228.087067 365.0
229.085068 128.0
229.158234 40.0
229.206406 30.0
236.230057 23.0
240.891113 20.0
241.201553 27.0
241.462234 27.0
242.225006 32.0
243.176224 39.0
245.083511 31.0
245.125031 33.0
251.572128 21.0
253.19664 24.0
257.191376 61.0
259.110657 20.0
259.196899 28.0
265.199921 41.0
269.183167 24.0
269.227844 28.0
275.126129 20.0
287.146088 24.0
290.717712 30.0
293.236267 28.0
295.151398 20.0
295.247253 42.0
297.435486 44.0
298.260223 31.0
304.160767 39.0
306.829346 26.0
307.254974 27.0
312.00293 29.0
313.160431 23.0
321.259827 119.0
322.258972 46.0
324.133575 68.0
330.208099 24.0
330.424194 20.0
337.24884 29.0
339.268066 228.0
341.279358 28.0
354.745941 33.0
356.563843 23.0
377.222534 22.0
381.209778 47.0
383.07843 21.0
392.220245 22.0
394.246307 30.0
395.226471 29.0
397.298676 21.0
405.186218 25.0
407.976624 27.0
411.208221 22.0
414.297211 60.0
415.287781 24.0
416.287659 29.0
427.316132 28.0
430.255219 21.0
431.156281 22.0
435.264618 27.0
437.165558 38.0
438.280945 24.0
439.314484 25.0
447.710968 21.0
452.325562 22.0
453.152344 22.0
460.27063 27.0
470.293762 28.0
472.797485 37.0
474.215118 23.0
474.280518 21.0
477.39975 25.0
483.357147 23.0
485.028137 28.0
485.19574 25.0
486.988525 39.0
491.005707 25.0
497.215332 21.0
498.353271 26.0
499.960419 33.0
501.307587 53.0
504.324432 26.0
508.287903 23.0
513.229919 22.0
515.36145 23.0
517.245178 26.0
518.449768 21.0
522.779602 31.0
526.295227 117.0
527.301453 40.0
537.331116 60.0
538.320801 81.0
540.300354 22.0
541.368225 33.0
543.35675 212.0
544.361816 126.0
545.37146 53.0
546.399597 25.0
547.800232 25.0
553.310364 37.0
555.329163 130.0
556.323669 70.0
556.971191 27.0
557.33197 76.0
557.375916 69.0
557.517639 34.0
558.242554 21.0
559.280396 30.0
561.372009 42.0
562.322327 46.0
562.362671 48.0
563.74054 29.0
565.33905 68.0
571.311462 100.0
573.290955 22.0
573.336731 305.0
574.347168 125.0
575.338745 50.0
577.257629 24.0
580.27832 28.0
581.316711 184.0
581.999329 25.0
582.307861 141.0
582.714844 22.0
583.352905 353.0
584.260864 20.0
584.351196 254.0
584.398315 38.0
585.252502 27.0
585.333923 36.0
587.283875 24.0
587.336853 54.0
588.321838 28.0
590.804932 25.0
591.469177 20.0
591.613708 34.0
592.832825 28.0
593.114624 20.0
593.779846 30.0
594.411804 21.0
595.064026 21.0
595.16748 21.0
595.482788 30.0
597.299561 42.0
598.841736 22.0
599.010193 28.0
599.318359 391.0
599.848328 35.0
599.983765 23.0
600.213867 36.0
600.31488 169.0
600.476685 54.0
600.610535 20.0
600.702942 29.0
600.857971 35.0
600.96344 28.0
600.99231 28.0
601.069092 51.0
601.171204 48.0
601.212769 70.0
601.361206 33325.0
601.434204 156.0
601.52478 55.0
601.583679 31.0
601.632446 32.0
601.678162 26.0
601.750061 56.0
601.81604 71.0
601.867432 34.0
601.929077 30.0
601.97876 32.0
602.02771 24.0
602.115845 26.0
602.215332 26.0
602.364136 13831.0
602.526489 25.0
602.601624 30.0
602.670349 37.0
602.858826 28.0
602.933777 67.0
603.098389 38.0
603.213562 47.0
603.367004 3100.0
603.56665 35.0
603.901428 20.0
604.060547 30.0
604.104187 55.0
604.243835 23.0
604.36908 374.0
604.613037 30.0
604.692078 26.0
604.864685 38.0
605.10321 27.0
605.183594 28.0
605.460083 26.0
605.556396 25.0
605.589417 30.0
605.757812 27.0
605.859741 20.0
605.905151 23.0
606.341431 39.0
606.480957 21.0
606.799866 20.0
606.904602 25.0
606.953125 34.0
607.152771 28.0
608.78772 25.0
610.603455 22.0
617.205383 20.0
617.32196 602.0
618.091675 45.0
618.328247 337.0
619.339294 62.0
620.214355 38.0
620.320862 36.0
635.32196 22.0
635.353333 43.0
636.339172 26.0
714.611023 36.0
819.46698 23.0
871.3172 20.0
872.093567 23.0
879.352722 25.0
882.647949 24.0
888.250977 33.0
912.862 20.0
924.407898 20.0
946.284241 28.0
949.468567 29.0
962.494568 31.0
977.837463 25.0
979.238159 22.0
981.526917 23.0
986.120117 27.0
997.839722 23.0
999.763184 25.0
1002.460144 20.0
1006.052124 32.0
1006.86554 25.0
1008.063782 21.0
1009.796753 25.0
1010.312195 38.0
1015.697937 34.0
1016.038513 21.0
1017.576782 20.0
1022.315002 33.0
1032.996094 46.0
1037.764038 28.0
1039.195923 25.0
1043.06604 23.0
1043.582764 20.0
1044.860962 38.0
1046.949219 29.0
1047.558838 33.0
1050.454346 21.0
1053.416382 38.0
1109.612305 30.0
1132.873047 23.0
1716.647827 35.0
END IONS

BEGIN IONS
PEPMASS=601.361
TITLE=CCMSLIB00006584904
SPECTRUMID=CCMSLIB00006584904
COMPOUND_NAME=Trp-UDCA
ADDUCT=[M+Na]1+
ION_MODE=positive
SMILES=CC(CCC(=O)NC(Cc1c[nH]c2ccccc12)C(=O)O)C1CCC2C3C(O)CC4CC(O)CCC4(C)C3CCC12C
COLLISION_ENERGY=37.0
MS_MANUFACTURER=Bruker Daltonics
81.069077 28.0
93.06562 31.0
95.0821 31.0
96.005074 229.0
98.008781 29.0
107.085602 56.0
117.068802 25.0
122.106461 38.0
123.11808 35.0
125.089417 37.0
128.061584 28.0
130.061661 33.0
135.117813 57.0
136.120621 32.0
146.060776 21.0
147.118118 88.0
149.132721 138.0
150.136063 48.0
151.110443 29.0
154.058899 24.0
155.043777 46.0
156.043884 24.0
156.074692 28.0
159.093811 78.0
161.109329 25.0
161.132721 165.0
162.135803 36.0
163.13121 36.0
163.144913 52.0
166.0681 30.0
175.154022 96.0
176.154556 37.0
177.132996 129.0
181.075897 579.0
182.058929 383.0
183.058228 31.0
188.07222 873.0
188.149185 36.0
189.074936 114.0
189.122284 22.0
189.164398 29.0
190.170746 28.0
190.242508 21.0
192.145844 42.0
197.076431 36.0
198.026291 30.0
199.087784 91.0
199.149734 37.0
200.067017 25.0
201.160049 52.0
202.171692 77.0
203.147705 29.0
205.099686 593.0
209.067795 23.0
209.090988 47.0
209.961899 27.0
210.05423 997.0
211.058609 128.0
215.149826 33.0
215.184158 99.0
216.089767 20.0
216.193604 85.0
217.159348 79.0
224.091766 22.0
225.707977 29.0
225.75351 51.0
227.039734 32.0
227.081757 4941.0
227.181656 27.0
227.428589 28.0
228.084396 760.0
228.572159 21.0
229.09108 68.0
229.158173 42.0
229.200729 35.0
230.161438 26.0
231.177353 20.0
235.194168 44.0
239.183655 49.0
240.162476 31.0
241.133392 21.0
243.175735 26.0
243.215393 27.0
244.185242 33.0
245.096024 63.0
247.121109 29.0
250.127945 27.0
257.192322 30.0
258.030029 24.0
258.190063 21.0
264.118347 26.0
264.305878 25.0
267.219147 27.0
269.189178 28.0
274.091827 30.0
287.138123 35.0
287.164703 36.0
292.076416 28.0
295.26001 53.0
297.26123 34.0
302.374481 32.0
302.969482 27.0
306.059479 20.0
306.808838 29.0
309.259613 26.0
311.260773 20.0
312.268707 27.0
313.122375 32.0
321.26181 128.0
322.264435 51.0
323.754303 25.0
334.483459 33.0
337.229675 21.0
339.270691 313.0
340.27066 149.0
341.191101 44.0
354.230194 20.0
355.167877 25.0
355.206757 31.0
357.219513 34.0
361.654266 23.0
363.326447 22.0
367.19989 22.0
379.205414 36.0
379.313599 22.0
393.687164 23.0
394.242706 43.0
395.230103 34.0
408.250824 20.0
414.310089 28.0
415.292267 50.0
426.206696 21.0
428.845612 21.0
429.225128 28.0
430.282013 41.0
431.267059 21.0
438.511292 32.0
439.262817 32.0
443.266785 23.0
446.262268 29.0
447.50354 20.0
458.335632 21.0
460.280914 24.0
463.301422 29.0
470.281891 30.0
476.053558 24.0
481.762604 34.0
483.283295 24.0
488.782104 26.0
489.309387 25.0
494.287201 33.0
495.288635 41.0
497.365753 20.0
500.342957 24.0
503.145142 20.0
511.310547 229.0
511.664886 21.0
512.234802 36.0
512.321167 62.0
515.369629 21.0
517.231079 21.0
518.289429 25.0
526.303528 133.0
526.352905 35.0
527.27417 22.0
527.315186 21.0
527.624084 22.0
529.253723 24.0
536.606506 21.0
537.321167 139.0
538.304016 31.0
538.367065 29.0
539.084351 43.0
543.356079 429.0
544.312927 35.0
544.36499 226.0
545.3479 60.0
546.369446 24.0
547.368958 26.0
551.001099 26.0
553.319336 46.0
554.300354 31.0
555.330139 276.0
556.331238 75.0
557.293518 20.0
557.345337 37.0
561.354187 67.0
561.789612 27.0
562.361877 31.0
563.330139 23.0
566.335022 25.0
571.18335 22.0
571.328369 119.0
571.378845 20.0
572.32135 51.0
573.331116 161.0
574.338013 73.0
575.350403 36.0
579.288757 36.0
580.384216 29.0
581.305847 404.0
581.405457 22.0
581.618713 20.0
582.313354 200.0
583.351257 446.0
584.353638 208.0
585.318726 21.0
585.357178 40.0
586.298279 25.0
588.677002 27.0
589.332703 22.0
591.012939 28.0
591.347961 48.0
591.818848 20.0
592.90033 23.0
594.488831 26.0
594.602051 26.0
596.249756 24.0
597.138367 21.0
598.034729 21.0
598.430603 22.0
598.458252 28.0
598.507385 22.0
598.723816 40.0
599.051514 34.0
599.316833 540.0
599.44104 22.0
599.632446 22.0
599.72522 33.0
600.314819 269.0
600.997742 20.0
601.159363 50.0
601.361755 41771.0
601.502502 22.0
601.557556 46.0
601.618652 44.0
601.70166 30.0
601.751831 21.0
601.93927 33.0
602.040955 74.0
602.229187 81.0
602.364685 19534.0
602.501648 71.0
602.561646 37.0
602.615051 20.0
602.685059 58.0
602.849854 45.0
602.940674 69.0
603.235901 42.0
603.281494 36.0
603.368103 3348.0
603.510803 41.0
603.560669 42.0
604.371643 604.0
604.555786 31.0
605.108093 31.0
605.316895 34.0
605.35614 31.0
605.38208 55.0
605.57373 27.0
605.651794 26.0
605.762939 20.0
605.975403 24.0
606.367798 34.0
606.730469 23.0
617.322021 251.0
618.350342 69.0
619.344727 55.0
620.375122 24.0
620.659241 23.0
621.881653 26.0
625.516846 21.0
635.336548 134.0
636.34613 83.0
637.386108 22.0
653.348267 61.0
661.671387 22.0
686.442749 22.0
730.371887 21.0
732.435425 27.0
746.794983 20.0
748.38739 23.0
873.519043 34.0
880.520874 25.0
892.967529 27.0
896.02655 20.0
899.36615 24.0
919.571777 21.0
920.448792 22.0
922.478088 22.0
936.750732 21.0
937.80249 39.0
946.914795 24.0
950.039551 28.0
950.516602 23.0
952.4021 25.0
952.693359 33.0
955.976196 20.0
963.922058 27.0
968.099365 27.0
969.179321 23.0
969.518616 24.0
973.54248 27.0
975.049622 30.0
984.744263 26.0
985.691528 36.0
991.892822 24.0
993.020569 41.0
995.396912 31.0
996.082214 25.0
996.15625 43.0
997.97052 38.0
998.088867 34.0
998.577881 29.0
1000.637573 27.0
1001.039185 33.0
1002.034973 38.0
1002.906311 22.0
1004.071594 38.0
1004.190613 25.0
1004.573303 21.0
1007.883423 25.0
1008.249023 24.0
1008.565735 35.0
1008.757751 22.0
1009.565552 23.0
1010.26123 36.0
1010.609436 24.0
1011.535583 24.0
1012.366943 20.0
1012.782288 24.0
1018.678467 22.0
1019.525513 25.0
1020.900085 22.0
1022.45697 20.0
1024.570801 30.0
1027.603027 20.0
1029.13562 30.0
1045.556274 32.0
1047.441406 31.0
1054.069702 25.0
1087.268555 32.0
END IONS

BEGIN IONS
PEPMASS=601.361
TITLE=CCMSLIB00006585003
SPECTRUMID=CCMSLIB00006585003
COMPOUND_NAME=Trp-UDCA
ADDUCT=[M+Na]1+
ION_MODE=positive
SMILES=CC(CCC(=O)NC(Cc1c[nH]c2ccccc12)C(=O)O)C1CCC2C3C(O)CC4CC(O)CCC4(C)C3CCC12C
COLLISION_ENERGY=37.0
MS_MANUFACTURER=Bruker Daltonics
79.051964 29.0
80.161827 22.0
95.083328 54.0
96.005569 141.0
97.10125 37.0
105.065269 23.0
111.078041 31.0
119.084641 63.0
119.888374 34.0
121.02961 39.0
123.116348 28.0
125.097389 35.0
126.09861 23.0
130.066345 76.0
132.082565 26.0
133.101105 27.0
138.014694 25.0
143.085342 25.0
144.083191 56.0
145.101913 60.0
146.104996 26.0
147.117691 84.0
148.12059 30.0
149.133652 46.0
151.114059 34.0
153.038635 28.0
154.063309 31.0
155.046387 65.0
155.85231 34.0
159.093262 347.0
159.117752 59.0
160.093826 20.0
161.133743 81.0
163.114914 82.0
163.147171 52.0
165.125549 22.0
166.061661 44.0
170.061478 24.0
172.121735 29.0
173.065811 20.0
175.146378 63.0
176.154648 36.0
176.314636 29.0
177.128464 32.0
179.091415 22.0
181.076019 574.0
182.05838 492.0
182.089905 81.0
183.044037 25.0
183.063263 101.0
187.150406 27.0
188.072647 900.0
189.074966 116.0
189.168289 54.0
191.150452 35.0
192.146225 31.0
199.063934 27.0
199.085663 65.0
199.154617 92.0
200.118851 42.0
201.1642 340.0
201.212662 31.0
203.146606 31.0
204.146545 33.0
205.100006 669.0
206.105148 61.0
207.110306 33.0
209.074356 63.0
210.055298 955.0
211.057907 87.0
212.061523 33.0
213.162277 27.0
215.024109 22.0
215.181152 41.0
216.183655 32.0
217.067078 24.0
217.195709 26.0
224.155609 26.0
226.103821 29.0
226.166412 38.0
227.081711 5878.0
227.18309 22.0
227.401672 21.0
228.084702 1036.0
229.03717 32.0
229.085999 82.0
229.155884 50.0
229.196304 55.0
230.202957 45.0
230.882797 39.0
231.175156 38.0
233.587814 24.0
239.087723 27.0
239.182297 25.0
241.135193 33.0
241.192429 35.0
242.196472 32.0
243.180145 46.0
252.07901 22.0
253.143677 31.0
257.197052 28.0
257.223999 66.0
265.194855 24.0
265.407318 24.0
267.121399 26.0
268.067505 20.0
269.108002 34.0
271.082397 25.0
273.210968 35.0
279.216858 36.0
287.109924 23.0
287.136078 69.0
288.15155 33.0
290.373718 25.0
295.246002 20.0
297.213135 20.0
298.266876 29.0
299.646027 33.0
302.016479 35.0
302.104309 26.0
306.060913 30.0
315.186584 35.0
321.264526 111.0
322.271484 37.0
329.06015 22.0
333.161194 23.0
336.231964 31.0
337.155487 28.0
337.602692 25.0
339.270691 286.0
340.275482 126.0
347.283722 21.0
349.191833 23.0
351.17038 26.0
353.18808 29.0
370.221924 32.0
374.246277 27.0
378.268005 27.0
381.159454 29.0
384.283173 42.0
391.205109 28.0
396.292297 20.0
397.238007 32.0
408.245544 28.0
415.276611 67.0
420.25296 36.0
423.314087 21.0
424.250336 22.0
426.269196 23.0
428.233948 31.0
430.259613 58.0
431.665405 33.0
431.973328 21.0
433.237915 24.0
437.165588 32.0
438.270996 22.0
439.238861 21.0
440.250824 25.0
440.28421 22.0
442.266724 31.0
445.230988 20.0
455.569122 23.0
456.273376 55.0
464.260071 30.0
465.296021 47.0
468.21756 23.0
471.325836 25.0
472.118103 29.0
473.246307 21.0
474.205231 35.0
480.344299 24.0
483.343781 30.0
483.564392 29.0
488.23587 34.0
488.305908 26.0
492.237701 30.0
492.821655 25.0
494.286224 39.0
498.239807 34.0
498.32605 25.0
499.200195 27.0
502.535004 36.0
509.26062 23.0
510.294495 24.0
511.316589 283.0
512.312805 113.0
513.287109 20.0
517.245667 23.0
526.30188 139.0
528.301819 38.0
530.301147 41.0
531.692566 22.0
532.782959 21.0
535.312378 30.0
535.732117 25.0
537.313843 165.0
537.370117 38.0
538.312195 59.0
538.35083 57.0
539.312866 20.0
540.320435 20.0
542.014893 24.0
543.355469 356.0
544.310364 73.0
544.369385 228.0
545.319824 50.0
545.367859 61.0
546.266418 22.0
546.341187 23.0
547.362549 31.0
553.323242 34.0
555.321899 206.0
556.329651 110.0
556.543213 34.0
557.330688 47.0
557.38092 31.0
558.404297 25.0
559.307861 40.0
562.338135 33.0
565.349976 22.0
566.299072 25.0
566.330322 20.0
571.271606 43.0
571.330383 104.0
571.37085 42.0
572.306458 60.0
573.151855 24.0
573.338074 329.0
574.341553 145.0
575.331726 27.0
578.333313 20.0
581.308411 277.0
581.381592 30.0
581.680786 20.0
581.724609 28.0
582.30658 183.0
583.351501 374.0
584.250732 26.0
584.354492 147.0
585.301819 51.0
585.348389 94.0
586.350952 35.0
587.340027 30.0
588.058105 34.0
591.356384 41.0
591.78064 21.0
592.303284 22.0
592.690613 20.0
595.240967 28.0
596.074707 22.0
596.281616 23.0
596.380676 25.0
596.627747 24.0
597.308411 52.0
597.966125 28.0
598.166992 24.0
598.28064 26.0
599.055603 28.0
599.238708 38.0
599.315796 653.0
599.696777 60.0
600.318726 234.0
600.49292 26.0
600.712769 41.0
600.81665 26.0
601.061829 22.0
601.214844 98.0
601.361328 42391.0
601.493835 46.0
601.560791 42.0
601.608215 41.0
601.781799 38.0
601.923218 67.0
602.034485 30.0
602.082947 86.0
602.133667 42.0
602.200378 27.0
602.245728 52.0
602.36438 18878.0
602.558472 25.0
602.68396 24.0
602.727478 21.0
602.979797 43.0
603.05719 33.0
603.097839 21.0
603.198486 46.0
603.289734 64.0
603.368652 3815.0
603.446411 56.0
603.854919 22.0
603.932678 45.0
604.036194 25.0
604.373535 458.0
604.436768 43.0
605.263916 44.0
605.380798 70.0
605.453064 30.0
605.568237 20.0
605.670532 20.0
605.751038 26.0
605.852478 29.0
605.896545 27.0
605.982178 25.0
606.03186 26.0
606.486023 23.0
606.597961 35.0
606.711121 38.0
606.905457 24.0
607.526306 25.0
608.222595 31.0
615.282288 20.0
617.192017 25.0
617.328613 378.0
617.614319 24.0
618.3255 145.0
619.331116 45.0
619.400879 25.0
620.324524 29.0
621.31012 47.0
627.322937 31.0
628.102844 23.0
635.341492 110.0
636.332214 68.0
640.326782 25.0
649.298645 32.0
653.461426 28.0
654.763428 24.0
655.342346 24.0
660.342224 28.0
703.330078 34.0
704.499512 25.0
740.409485 35.0
756.38147 27.0
885.21936 23.0
887.682251 26.0
888.338684 22.0
889.058716 27.0
892.568481 22.0
911.345398 43.0
911.408813 24.0
915.199463 28.0
922.627747 21.0
925.086365 33.0
930.776917 27.0
940.896423 24.0
944.381104 20.0
947.612244 24.0
953.163635 20.0
956.484131 20.0
970.526672 34.0
972.790161 20.0
982.107849 28.0
985.102051 25.0
986.560974 30.0
993.409485 36.0
994.311768 49.0
994.938782 20.0
997.77478 24.0
998.446533 21.0
998.741394 25.0
1000.237549 26.0
1004.883118 22.0
1005.597473 46.0
1006.750427 23.0
1007.504944 50.0
1009.841797 40.0
1010.274963 31.0
1010.395203 25.0
1015.124939 20.0
1015.998962 39.0
1016.081909 20.0
1016.592529 23.0
1018.844116 33.0
1021.365967 26.0
1022.13678 22.0
1022.448975 29.0
1023.180115 35.0
1023.763428 30.0
1027.905273 23.0
1029.137817 20.0
1030.727783 25.0
1031.704956 26.0
1033.04834 24.0
1039.243042 24.0
1040.950562 31.0
1042.066162 23.0
1044.667114 22.0
1044.918945 35.0
1047.776123 20.0
1053.348389 30.0
1056.096069 25.0
1063.356323 37.0
1063.88147 23.0
1848.318726 38.0
END IONS

