BEGIN IONS
CHARGE=1+
PRECURSORTYPE=M-H+Na
FORMULA=C23H46NO4+
ONTOLOGY=
INCHIKEY=XOMRRQXKHMYMOC-UHFFFAOYSA-O
INCHI=InChI=1S/C23H45NO4/c1-5-6-7-8-9-10-11-12-13-14-15-16-17-18-23(27)28-21(19-22(25)26)20-24(2,3)4/h21H,5-20H2,1-4H3/p+1
SMILES=CCCCCCCCCCCCCCCC(=O)OC(CC(=O)O)C[N+](C)(C)C
IONMODE=positive
INSTRUMENTTYPE=LC-ESI-Orbitrap
INSTRUMENT=Orbitrap
COMMENT=DB#=CCMSLIB00010116736; origin=GNPS
NUM_PEAKS=10
COMPOUND_NAME=palmitoyl carnitine
PRECURSOR_MZ=422.324
COLLISION_ENERGY=205060
PARENT_MASS=421.31672354800924
59.578991 0.0074402465910298745
62.426571 0.008479138165722063
99.118187 0.00875000428585633
100.11187 0.013985606380097168
107.010384 0.040163616851301355
115.352859 0.00912373095794032
157.947601 0.01006319066574778
182.582733 0.008691716639751488
363.250153 1.0
422.323975 0.08861779418975028
END IONS

