BEGIN IONS
CHARGE=1+
PRECURSORTYPE=M+H
FORMULA=C24H20N2O3S
ONTOLOGY=
INCHIKEY=JSUSZTQAHMZNSZ-UHFFFAOYSA-N
INCHI=InChI=1S/C24H20N2O3S/c1-29-23-13-7-16(6-12-22(28)17-8-10-19(27)11-9-17)14-18(23)15-30-24-25-20-4-2-3-5-21(20)26-24/h2-14,27H,15H2,1H3,(H,25,26)/b12-6+
SMILES=COc1ccc(C=CC(=O)c2ccc(O)cc2)cc1CSc1nc2ccccc2[nH]1
IONMODE=positive
INSTRUMENTTYPE=LC-ESI-Orbitrap
INSTRUMENT=Orbitrap
COMMENT=DB#=CCMSLIB00010117130; origin=GNPS
NUM_PEAKS=130
COMPOUND_NAME=(2E)-3-[3-(benzimidazol-2-ylthiomethyl)-4-methoxyphenyl]-1-(4-hydroxyphenyl)pr op-2-en-1-one
PRECURSOR_MZ=417.127
COLLISION_ENERGY=205060
PARENT_MASS=416.11972354800923
55.015369 0.0007143012987837291
55.01828 0.01810346352245169
60.27375 0.00034256379537875244
65.038986 0.010228132611610508
67.054352 0.00038901032203806697
68.997398 0.0020237297122893873
69.033768 0.0016037894745889565
71.012947 0.001882117393017616
79.017883 0.0007835165409139354
79.054367 0.0023916655426937795
91.054268 0.02369436086273514
92.375771 0.0003390100575738582
93.033699 0.000551180601285825
93.069962 0.001274221615717637
95.049156 0.001877902494690881
103.054176 0.003981859904052385
105.033333 0.0014939541828981576
107.048973 0.04113017622572549
109.028 0.001333147547226696
111.0438 0.004905108589004107
115.054047 0.03619860055458145
116.061783 0.0037306808895518125
117.069588 0.00736334473174073
119.048897 0.007093487932498155
119.085533 0.000360084549207533
121.028267 0.4160873660819363
123.044449 0.0005156638845031907
128.061661 0.0005431227074258905
129.069443 0.0005477714923450835
130.042068 0.0004559321636081381
131.048981 0.027576695446984184
133.064789 0.0026049517947863525
135.044281 0.001232733792972128
141.069717 0.006760800222414399
143.049088 0.0031573720720506292
144.044952 0.0006429786074901553
144.056732 0.012819365325568665
145.064468 0.01701622636681715
146.035873 0.0006183297167852788
146.072601 0.0005345689431745755
147.043686 0.004307502122325275
147.080444 0.0031406777688741494
149.059677 0.0016144713492699467
152.061768 0.012882733429333841
153.069611 0.016142791994932865
155.085175 0.002299950181554679
157.064545 0.003162805985089508
159.043869 0.003718242807234683
160.051147 0.0016150705259928648
161.059387 0.001751910092747598
163.559174 0.00037622099819370947
165.069626 0.07812132229459726
166.077423 0.09295255776559479
167.085266 0.05728641870502456
168.056671 0.007360886041050134
169.065079 0.004263514286356556
170.072708 0.0005769452003713078
171.079819 0.0006157263972305308
173.059341 0.0035643783570425496
174.066956 0.0015360411823665844
176.061371 0.008231200561721979
177.069351 0.005813295210817644
178.06012 0.0004982670982722553
178.077332 0.01218580825551474
179.085281 0.021213975842516854
180.092422 0.003399501451908506
181.064453 0.05241184746762297
181.100906 0.02912447222861344
182.072128 0.005459656976698059
183.079742 0.006647679789380704
184.051575 0.0008076902224937388
189.049988 0.0007437436032719512
189.069595 0.02651607000235373
190.077332 0.06683124191731261
191.085159 0.09299619436003628
192.092529 0.003996880644657955
193.064636 0.0027355929816488284
193.10112 0.003410906470910259
194.072311 0.24353699060887596
195.080078 0.07040400874847602
196.053482 0.0006595076205361748
196.087753 0.01191950519407706
197.059235 0.007181380959370364
197.094727 0.001315213568071765
198.06633 0.0008287233915947985
199.073364 0.0005019034811423796
201.068512 0.0005272961774343269
202.077271 0.0049498815530925125
202.221085 0.0003830598773415
203.085266 0.0007104996257831447
204.056091 0.0008209547554631694
205.064514 0.008155208424242905
206.07225 0.006673299759602035
207.080032 0.03684903787920862
208.087952 0.02102064837367735
209.058823 0.0036179736818442677
209.095734 0.15155629748785449
210.066376 0.004375374382145492
211.074997 0.012880357383708475
211.110413 0.004063699179896489
212.082245 0.0006197760054268055
213.090637 0.0033134886002702825
218.071976 0.014441502004638703
219.080002 0.09799872081968036
220.087906 0.00533120588406418
221.05925 0.0054623222800517296
221.095383 0.0048060171557932204
222.067123 0.017409906135040714
223.075134 0.008210539295414454
224.082703 0.021468171401898325
225.09024 0.003367621117995996
229.076065 0.00222158199845024
233.05925 0.00042865929208220604
234.066742 0.011718202476442851
235.075272 0.00714419068001682
236.082779 0.021808503780515864
237.090439 0.2168525312861159
238.098099 0.0016592856358909668
239.0849 0.00047351490123584124
239.10614 0.018373299660427955
249.090302 0.02029866108382722
251.069977 0.0015551941762336594
252.077332 0.011884711621615189
255.101135 0.001452321731288496
265.098907 0.0028935277013035442
267.100891 1.0
269.080658 0.0015935001639678095
297.108368 0.0005074200392464886
387.670837 0.00038413426318949126
417.125519 0.05430284920515282
END IONS

BEGIN IONS
CHARGE=1+
PRECURSORTYPE=M+H
FORMULA=C24H20N2O3S
ONTOLOGY=
INCHIKEY=JSUSZTQAHMZNSZ-UHFFFAOYSA-N
INCHI=InChI=1S/C24H20N2O3S/c1-29-23-13-7-16(6-12-22(28)17-8-10-19(27)11-9-17)14-18(23)15-30-24-25-20-4-2-3-5-21(20)26-24/h2-14,27H,15H2,1H3,(H,25,26)/b12-6+
SMILES=COc1ccc(C=CC(=O)c2ccc(O)cc2)cc1CSc1nc2ccccc2[nH]1
IONMODE=positive
INSTRUMENTTYPE=LC-ESI-Orbitrap
INSTRUMENT=Orbitrap
COMMENT=DB#=CCMSLIB00010117133; origin=GNPS
NUM_PEAKS=49
COMPOUND_NAME=(2E)-3-[3-(benzimidazol-2-ylthiomethyl)-4-methoxyphenyl]-1-(4-hydroxyphenyl)pr op-2-en-1-one
PRECURSOR_MZ=417.127
COLLISION_ENERGY=205060
PARENT_MASS=416.11972354800923
51.427509 0.0041764923146859105
55.018349 0.02427290204657594
58.595558 0.005104601717949447
75.04937 0.004290138364065119
88.559174 0.0045553124792832725
91.054413 0.02417630290460361
92.364487 0.004782604578041689
107.048897 0.03478326751332973
115.054092 0.030978018959949238
121.02845 0.3664346393158508
131.049133 0.031065147597806632
138.816086 0.004653805722078587
145.064468 0.007741190063547083
152.062378 0.007701413946264359
153.069855 0.010146698108740328
165.069748 0.05860347946321183
166.077927 0.07096438143402373
167.085632 0.051998749893456826
178.077209 0.008506406796033752
179.08551 0.010468695248648085
181.064728 0.04889621274540444
181.101044 0.029364245058764477
189.070206 0.023865670369633777
190.077286 0.05869629040353818
191.085861 0.08130048962506274
194.072632 0.2236345900692294
195.080353 0.06270799594662424
196.087936 0.00921480050383082
197.059357 0.005979676298169352
207.080627 0.037298633406256214
208.088501 0.026240872801659234
209.096085 0.11912189485846332
211.075241 0.009822806868009584
218.071594 0.007794224886590713
219.080505 0.08456023714142304
222.067062 0.009883418094345162
224.082993 0.028784650206930516
234.067444 0.009589832466782206
235.075409 0.006428578193217225
236.083405 0.022693221960204943
237.090668 0.19327594207839682
239.105865 0.009121989563504466
249.091995 0.021943158034302166
252.07811 0.010728187061397278
267.101288 1.0
276.38974 0.004778816376395716
317.845825 0.005731549090358079
324.415314 0.004756087166519874
417.128113 0.05986116240967507
END IONS

BEGIN IONS
CHARGE=1+
PRECURSORTYPE=M+H
FORMULA=C18H16ClN3O3
ONTOLOGY=
INCHIKEY=LTVSSQLGIHDDKJ-UHFFFAOYSA-N
INCHI=InChI=1S/C18H16ClN3O3/c1-11-13(14-4-2-3-5-17(14)21-11)8-9-20-18(23)15-10-12(22(24)25)6-7-16(15)19/h2-7,10,21H,8-9H2,1H3,(H,20,23)
SMILES=Cc1[nH]c2ccccc2c1CCN=C(O)c1cc([N+](=O)[O-])ccc1Cl
IONMODE=positive
INSTRUMENTTYPE=LC-ESI-Orbitrap
INSTRUMENT=Orbitrap
COMMENT=DB#=CCMSLIB00010122105; origin=GNPS
NUM_PEAKS=38
COMPOUND_NAME=(2-chloro-5-nitrophenyl)-N-[2-(2-methylindol-3-yl)ethyl]carboxamide
PRECURSOR_MZ=358.095
COLLISION_ENERGY=205060
PARENT_MASS=357.08772354800925
80.049393 0.0004482535394027463
81.668419 0.00040660856532704265
91.054222 0.003296073683040702
109.333366 0.00037012420763535996
115.054153 0.005488375531573491
116.062019 0.0005974313572013042
117.05722 0.006211461897008979
117.069733 0.012923863626271521
118.065338 0.0008944668351187866
128.062469 0.0005855499380846048
129.069824 0.004068725968629693
130.065155 0.011700317485920519
131.072922 0.0028395391545566204
131.085434 0.010557180949692631
132.080536 0.002883584415322566
141.069824 0.007240584815450357
142.065338 0.001545904642850542
143.072937 0.19444674471918927
144.080795 0.0049195075859860705
145.084244 0.0030859285833099905
156.080872 0.010462489639762573
157.088379 0.008721561703329845
157.582809 0.000794014837132147
158.096405 1.0
158.612869 0.001023362230384797
169.976059 0.0030416432938750204
171.092117 0.00044657333871957666
171.973465 0.005432928909028895
172.099091 0.004318595813083915
176.545822 0.0004501737687549401
183.97966 0.008648833016615504
185.9767 0.006631272039132354
213.01857 0.006091087519493328
227.021149 0.01011660832769866
227.045837 0.00046877599060431776
321.902191 0.0003900465871643709
341.068909 0.001811856408129387
358.095337 0.054910038454993065
END IONS

BEGIN IONS
CHARGE=1+
PRECURSORTYPE=M+H
FORMULA=C11H12O5
ONTOLOGY=
INCHIKEY=PCMORTLOPMLEFB-UHFFFAOYSA-N
INCHI=InChI=1S/C11H12O5/c1-15-8-5-7(3-4-10(12)13)6-9(16-2)11(8)14/h3-6,14H,1-2H3,(H,12,13)/b4-3+
SMILES=COc1cc(C=CC(=O)O)cc(OC)c1O
IONMODE=positive
INSTRUMENTTYPE=LC-ESI-Orbitrap
INSTRUMENT=Orbitrap
COMMENT=DB#=CCMSLIB00010124669; origin=GNPS
NUM_PEAKS=90
COMPOUND_NAME=SINAPIC ACID
PRECURSOR_MZ=225.076
COLLISION_ENERGY=205060
PARENT_MASS=224.06872354800925
51.023472 0.002182774430400178
51.574879 0.0022155122401341185
53.03899 0.004982999179270723
54.2869 0.0018043862574288181
55.01828 0.0043526060057892625
56.965199 0.003068217982041408
60.528759 0.0024751306847683916
60.759048 0.002132525699180641
64.031052 0.0027324650961654128
65.038971 0.02830221718719784
66.061974 0.0019452349737260042
77.038849 0.019994426958901107
79.021797 0.00402979597492436
79.054497 0.003966604388693731
80.062248 0.004163031247097374
82.387772 0.0021195828441695486
84.959709 0.002210944173659615
85.950768 0.0018980316201561364
89.038689 0.018783127998745305
91.054367 0.6047442415715367
93.033051 0.0031626246891811437
95.049232 0.011080606578320261
103.053978 0.019765262290763523
103.949089 0.002047255124989912
105.033371 0.026497830929769022
107.048859 0.014177755648033523
108.056831 0.008238507886766768
112.637177 0.0021507979650786544
117.033661 0.003976501866055155
117.858223 0.002280226515189582
118.041237 0.07166002012994627
119.049156 0.5847376331020369
121.028214 0.018070509628722784
121.064743 0.004509442954747211
122.036293 0.004793424420578835
123.044006 0.009911942905259824
128.578751 0.002213989551309284
129.033493 0.014051372475572265
129.042938 0.001977972783459945
131.049255 0.004416558936432309
132.020538 0.04830578027904795
133.028442 0.020614161310608725
134.03627 0.0028405760027286585
135.043839 0.023728821301807583
136.051804 0.024865508509546497
137.011749 0.017433264355529568
137.058533 0.0036757708231503518
137.853302 0.00201223328201872
140.046707 0.003434424644414092
145.028671 0.0171119770134895
146.036331 0.025558331924846172
147.044037 0.4136231923780288
149.023361 0.08020078174844267
150.030762 0.008198156632908656
151.038605 0.003359812891997204
153.054398 0.011212319161668441
155.022202 0.0025801962136819683
156.97438 0.003939957334259128
157.010452 0.003512081774480649
157.039841 0.03569411008735666
160.015274 0.0037351556873188954
162.031082 0.007850983580846401
163.038422 0.015835963778278235
164.046677 0.08877961058755994
165.007095 0.016954378720119134
166.065186 0.023493565878370662
167.072861 0.008171509578474052
173.023056 0.0030979104141256797
174.031281 0.022643905514113043
174.985138 0.007507617250846235
175.038956 0.49737336177716057
177.018341 0.04460945315676234
178.977585 0.011376769554750562
179.070282 0.059302638972002324
181.085938 0.004286369041908965
182.084427 0.0031694767888928986
183.064667 0.010506552891357676
183.0914 0.018027112997215003
184.968918 0.010558324311402046
192.041611 0.24264731633708067
193.048965 0.003119228057673362
201.973785 0.0024378248085599476
201.993561 0.003638464946941908
207.06517 1.0
215.113968 0.0021469912430165682
225.042389 0.007844892825547064
225.07222 0.014512747189497101
225.111618 0.005659834361909634
225.13858 0.03348240456928463
227.040344 0.004675416036654166
END IONS

BEGIN IONS
CHARGE=1+
PRECURSORTYPE=M+H
FORMULA=C21H25NO5S
ONTOLOGY=
INCHIKEY=SKSXXESXTVWIKU-UHFFFAOYSA-N
INCHI=InChI=1S/C21H25NO5S/c1-12(2)27-21(24)18-14-7-5-6-8-17(14)28-20(18)22-19(23)13-9-10-15(25-3)16(11-13)26-4/h9-12H,5-8H2,1-4H3,(H,22,23)
SMILES=COc1ccc(C(O)=Nc2sc3c(c2C(=O)OC(C)C)CCCC3)cc1OC
IONMODE=positive
INSTRUMENTTYPE=LC-ESI-Orbitrap
INSTRUMENT=Orbitrap
COMMENT=DB#=CCMSLIB00010116740; origin=GNPS
NUM_PEAKS=65
COMPOUND_NAME="methylethyl 2-[(3,4-dimethoxyphenyl)carbonylamino]-4,5,6,7-tetrahydrobenzo[b]t hiophene-3-carboxylate "
PRECURSOR_MZ=404.153
COLLISION_ENERGY=205060
PARENT_MASS=403.14572354800924
51.023411 0.003665956483638795
52.94429 0.0006989696116420179
53.039101 0.020978017551072956
53.482571 0.0006987619557859151
53.51091 0.0006140383664959736
55.018269 0.003041950636049887
65.038857 0.006289272913785442
66.043053 0.000750260608099409
66.046852 0.01676634147759601
67.054611 0.0010993301022082123
68.026016 0.0010098304282279064
68.99749 0.005365412009984093
69.033913 0.005408812083909579
73.402046 0.000528276497925518
75.044441 0.0006005407358492916
77.038742 0.005027971243817047
78.046593 0.0008383066910869954
79.01815 0.0015356150558801908
79.054543 0.05328137783813641
81.033684 0.005245179269300573
81.070129 0.01063301811174377
82.041603 0.0032628964669432644
83.049187 0.001107013368884016
85.028252 0.0010083768372351868
91.054314 0.004491596167503519
92.025688 0.004070677747183149
92.366463 0.0008059123775349589
94.041458 0.03003035928616223
95.013069 0.001121341622955109
95.0494 0.009294260807449032
97.028816 0.0009300905794844321
98.036461 0.007939514002234378
105.033592 0.005599024848099742
105.04454 0.0013553697727829623
107.012909 0.001561156726180835
107.04911 0.006252310171399144
109.028427 0.013988321434652779
109.064774 0.027311521162208294
111.00769 0.007234522370765378
113.060387 0.0007866003829173987
118.643707 0.0009759825236831504
121.028023 0.005878944942126313
122.036201 0.04054293700136637
126.031174 0.019311163994135797
135.044403 0.0014953298197962481
136.195129 0.0007755946225439503
137.023331 0.0025851077526237317
137.059311 0.002559150770610882
141.05455 0.005815194594302754
154.025528 0.004868906858042304
155.070221 0.03722044330372161
165.054565 1.0
165.604782 0.0008958273632274704
166.057678 0.015906646233330428
180.04776 0.0034699293554777536
198.163681 0.000645394400767496
206.027512 0.0012824825672908802
213.028595 0.0006871332278441584
225.989792 0.0006377111340916925
291.582703 0.0006208910097473659
344.094604 0.1278908810007351
356.84436 0.0007483917053944839
362.106415 0.004753242546193045
376.737061 0.00065162407645058
404.150909 0.021786837110593357
END IONS

BEGIN IONS
CHARGE=1+
PRECURSORTYPE=M+H
FORMULA=C22H30N2O2
ONTOLOGY=
INCHIKEY=XSUFLYSABLUBNS-UHFFFAOYSA-N
INCHI=InChI=1S/C22H30N2O2/c1-16-12-17(2)22-18(14-21(25)26-20(22)13-16)15-23-8-10-24(11-9-23)19-6-4-3-5-7-19/h12-14,19H,3-11,15H2,1-2H3
SMILES=Cc1cc(C)c2c(CN3CCN(C4CCCCC4)CC3)cc(=O)oc2c1
IONMODE=positive
INSTRUMENTTYPE=LC-ESI-Orbitrap
INSTRUMENT=Orbitrap
COMMENT=DB#=CCMSLIB00010115491; origin=GNPS
NUM_PEAKS=151
COMPOUND_NAME="4-[(4-cyclohexylpiperazinyl)methyl]-5,7-dimethylchromen-2-one "
PRECURSOR_MZ=355.238
COLLISION_ENERGY=205060
PARENT_MASS=354.2307235480092
55.054741 0.09563443237925014
56.049961 0.05731128476906807
57.04525 0.00045082253691776586
57.05777 0.003410407100718024
57.47916 0.0003454452116829029
58.06562 0.00750854781477342
65.039207 0.00047991028646547765
67.041786 0.00034732426527125644
68.049873 0.004713568345312926
69.03347 0.0003749839340918196
69.044724 0.0005479320263638734
70.065514 0.08704903653406311
71.060677 0.006122858536578033
72.044769 0.0006425611650733544
72.081131 0.0030981835564772107
73.076408 0.002382038652883934
79.054703 0.00045082253691776586
80.049957 0.000629858762816085
81.070183 0.0007532750024991413
82.065422 0.004485676726117417
83.060623 0.026019405362217644
83.08577 0.10625161128845201
84.06842 0.06117882802676073
85.076241 0.11010742925175335
86.060013 0.00032868405367478997
86.08403 0.011908314210831316
87.09185 0.04953485907473898
91.054352 0.009347690304910268
91.353996 0.0003401838616355132
92.177979 0.0003477000759889271
92.383751 0.0004197054094946323
94.065048 0.0004986256602054782
95.085167 0.0003922712271046716
96.080597 0.0012043230258475094
97.07608 0.036795176394276555
98.060127 0.00035160850745270236
98.083931 0.012593041338427322
98.09639 0.002223145881452764
99.091713 0.08666601025061313
103.054283 0.0005735623173090149
104.295914 0.0004258687052644317
105.069817 0.0065146036286779655
106.064941 0.0007650754590340011
108.080788 0.0006339926807104626
109.075912 0.00045390418480266556
110.060112 0.0007999506936338416
110.083687 0.0019092687700541994
110.096489 0.0013443500992516106
111.091614 0.0019634606755423137
111.103928 0.0007284714951328754
112.112007 0.036558791452861686
113.070953 0.009126037143628092
115.054466 0.002591214898339443
116.062218 0.002746499886880974
117.069672 0.0055167510111187356
119.085533 0.004197956040668732
121.06498 0.0005949083660727103
122.096519 0.0005109522517450771
123.092339 0.002869690640133428
123.103737 0.002730715836738805
124.099937 0.002571898227451169
124.112122 0.011126477593789201
125.071251 0.0003520594803139072
125.1073 0.028921716372644887
126.127663 0.03295702153470574
128.061981 0.0035891426780422066
129.069717 0.003280526916691032
130.077866 0.0072904272742373485
130.683807 0.0002975669262516564
131.085464 0.030771231238589446
133.064972 0.0005613860500564843
133.101044 0.007187004164734373
135.080643 0.0031356143039572115
138.127548 0.00277476085284981
139.085754 0.0004957694987511809
141.069992 0.0005742387766008221
142.077789 0.0013437488021033374
143.085495 0.009499592996992762
144.057266 0.0013269876440952244
145.065109 0.001091579810546301
145.088196 0.0006815703175675727
145.101151 0.019842881055156237
146.072433 0.004506120829158702
147.080429 0.01503761489473166
149.096024 0.001296471813820364
151.086746 0.0021297944991833634
152.094467 0.0003852059856124625
157.101959 0.0005597324828987333
158.095932 0.0004426298632725447
159.080399 0.30291952314129655
159.453674 0.0003245501357804123
160.075439 0.00043158102817302625
160.112915 0.0007165207143109473
161.095978 0.08889764945428526
165.138718 0.0040742391524115395
166.146194 0.010543069035677215
166.948212 0.00032364819005800265
167.15419 0.006884401374865929
168.16185 0.004219076603001826
169.063705 0.004407132286124242
169.169205 0.0004916355808568033
171.080231 0.0018147147934882526
172.051773 0.0006226431970368076
173.096359 0.008949030295605195
174.067368 0.010174774532359933
174.091949 0.0012776812779368293
174.128082 0.0005383864341350378
175.075256 0.1421014734034997
177.113907 0.0003650625311453132
179.152817 0.0005029099023869241
181.169922 0.0015787808249345902
184.112289 0.0004987008223490124
185.060425 0.0007698106740766518
185.096222 0.00183064916791749
186.067368 0.0023301767738453777
186.089584 0.0005446248920483713
186.128708 0.00038979087636804497
187.075211 0.06221163104106334
188.107193 0.005284950960459451
189.090836 0.057050171482430474
196.932434 0.0003451445631087664
198.09111 0.00042173478737005403
200.105637 0.003851684045406954
201.091553 0.0006462441101065273
202.122818 0.007837307030591744
209.036301 0.0005021582809515828
209.054321 0.0005062170367024264
213.091217 0.00047066534281077856
214.123734 0.0003858072827607356
214.147308 0.0003528862638927827
215.093887 0.0006160289284058034
216.101288 0.0015651013148113768
226.087189 0.00041790151804981294
228.101883 0.004175632884039093
229.131912 0.0003851308234689283
229.170746 0.0006094898219183334
230.117432 0.052356145294436426
230.141479 0.007030516581896296
231.148743 0.007745985026197765
240.100449 0.0004454108625833078
242.117752 0.00045833875127117974
244.132065 0.0029442514865192938
245.164688 0.010529765336271672
255.148666 0.002668631906179606
256.132843 0.0005567259971573677
271.144012 0.0005369583534078891
272.152191 0.0016514626177321025
273.159271 0.1366312477592286
353.503265 0.0007876241020942428
355.237457 1.0
356.986969 0.0007752223484111099
END IONS

BEGIN IONS
CHARGE=1+
PRECURSORTYPE=M+H
FORMULA=C19H17NO3S
ONTOLOGY=
INCHIKEY=CWULQENCADQNSG-UHFFFAOYSA-N
INCHI=InChI=1S/C19H17NO3S/c1-22-16-9-8-14(11-17(16)23-2)15(21)12-24-18-7-3-5-13-6-4-10-20-19(13)18/h3-11H,12H2,1-2H3
SMILES=COc1ccc(C(=O)CSc2cccc3cccnc23)cc1OC
IONMODE=positive
INSTRUMENTTYPE=LC-ESI-Orbitrap
INSTRUMENT=Orbitrap
COMMENT=DB#=CCMSLIB00010115250; origin=GNPS
NUM_PEAKS=57
COMPOUND_NAME="1-(3,4-dimethoxyphenyl)-2-(8-quinolylthio)ethan-1-one "
PRECURSOR_MZ=340.1
COLLISION_ENERGY=205060
PARENT_MASS=339.09272354800925
60.016121 0.0008126989390106132
71.692177 0.0007793732416493924
82.899094 0.0009093154565704553
91.054337 0.00947177929538834
95.049057 0.0036621860873334907
107.049004 0.011136943971941444
108.056862 0.006858932603117829
109.064308 0.001503857099409715
117.057259 0.015284172982213039
119.049103 0.014039360169014494
121.064911 0.0049820517315640285
123.044067 0.0018032282799067328
124.051804 0.004734209360432259
130.064987 0.09851048135189192
135.043762 0.003538684973583084
135.791901 0.0008135390826415685
136.051682 0.010245551579498031
137.059738 0.004807861952079328
138.067307 0.015839787970151377
139.07515 0.012333868598175543
142.064957 0.0009574836914118838
147.026306 0.0008796303816100401
147.043854 0.004181394851263772
148.052094 0.008211003753201647
151.038651 0.003244354654871797
151.075195 0.09324530121669601
160.0215 0.014884544661755374
161.029175 0.5294615967545812
162.037048 0.005476896330196611
165.054474 0.04437414620403504
168.024033 0.0016592836711364174
169.031891 0.006352325993651875
172.02153 0.004564500346979319
173.029144 0.035781997290256745
174.037018 1.0
179.069824 0.008976374601001787
180.077698 0.02792469400568721
183.04747 0.0016186767289735854
186.036346 0.0018525167062561016
202.03183 0.07460223399792429
220.452881 0.000890832296689442
246.918945 0.0009409608666697658
248.052322 0.0015901118455211103
249.057953 0.001071743225221784
260.052856 0.0010216146552414602
264.048096 0.0019720971497287176
276.048615 0.004878714064956545
278.063202 0.009498663891578904
288.04895 0.001895083983557829
290.062622 0.014922351125148356
292.042145 0.001122711938833063
304.04071 0.002035668017804324
306.057373 0.04552822350509043
307.065704 0.001808829237446434
322.089386 0.0045827034589833475
324.068878 0.004020367321997368
340.099518 0.7215153502642812
END IONS

BEGIN IONS
CHARGE=1+
PRECURSORTYPE=M+H
FORMULA=C7H7NO3
ONTOLOGY=
INCHIKEY=QPEJHSFTZVMSJH-UHFFFAOYSA-N
INCHI=InChI=1S/C7H7NO3/c8-5-1-4(7(10)11)2-6(9)3-5/h1-3,9H,8H2,(H,10,11)
SMILES=Nc1cc(O)cc(C(=O)O)c1
IONMODE=positive
INSTRUMENTTYPE=LC-ESI-Orbitrap
INSTRUMENT=Orbitrap
COMMENT=DB#=CCMSLIB00010125252; origin=GNPS
NUM_PEAKS=33
COMPOUND_NAME=3-Amino-5-hydroxybenzoic acid
PRECURSOR_MZ=154.05
COLLISION_ENERGY=205060
PARENT_MASS=153.04272354800926
54.674301 0.0019610093647287135
55.935059 0.010289117985740384
60.5233 0.0022150437051781193
65.039284 0.10266914220869042
67.042557 0.002188258595808215
67.05497 0.002112630051704957
68.013687 0.025947862602812097
70.659012 0.0021105696586765027
71.929604 0.0027877117674984637
72.937729 0.004079578196339215
80.05011 0.023012529734804388
81.03405 0.05663778036040637
82.065689 0.021892403124864786
82.378708 0.0028141332780986404
89.94017 0.002451746504270528
92.050034 0.10682410654995307
92.355324 0.0026916004927005728
93.033997 0.053862067352308904
93.057777 0.00248398559518634
108.044724 0.056361930093773334
109.028992 0.00419980818952901
109.052528 0.01277225518379736
110.060387 0.18675160010728586
111.044403 0.06163459705317741
125.960747 0.002517921480360879
126.044533 0.0022478887940434763
126.055038 0.07144134067107971
135.945435 0.00992830680658109
136.039368 0.1565925365534933
136.175964 0.0025461609848096917
137.023483 0.02274492104028517
153.955307 0.005099593945013928
154.049896 1.0
END IONS

BEGIN IONS
CHARGE=1+
PRECURSORTYPE=M+H
FORMULA=C19H20N2O4
ONTOLOGY=
INCHIKEY=KJJMCOKZMYYDII-UHFFFAOYSA-N
INCHI=InChI=1S/C19H20N2O4/c1-2-25-18(23)13-12-17(22)21-16-11-7-6-10-15(16)19(24)20-14-8-4-3-5-9-14/h3-11H,2,12-13H2,1H3,(H,20,24)(H,21,22)
SMILES=CCOC(=O)CCC(O)=Nc1ccccc1C(O)=Nc1ccccc1
IONMODE=positive
INSTRUMENTTYPE=LC-ESI-Orbitrap
INSTRUMENT=Orbitrap
COMMENT=DB#=CCMSLIB00010116960; origin=GNPS
NUM_PEAKS=25
COMPOUND_NAME=ethyl 3-{N-[2-(N-phenylcarbamoyl)phenyl]carbamoyl}propanoate
PRECURSOR_MZ=341.15
COLLISION_ENERGY=205060
PARENT_MASS=340.1427235480092
55.018311 0.07692047415494625
55.16024 0.004682524465297437
66.74453 0.004355443270210422
73.028641 0.02459876160292343
82.397018 0.0054757903522326115
101.023163 0.07881528935407103
120.044144 0.0301309452646538
129.054596 0.005539702769663407
132.04422 0.07802954257506889
139.46283 0.00509983495558087
146.02359 0.009983495558086988
146.059952 0.0472745113519732
150.054504 0.006671328513585148
156.043533 0.009073683498189775
174.054688 1.0
184.039612 0.007267217817278158
185.835358 0.005699483813240397
202.049484 0.7000082710187263
208.182938 0.005191944027760547
208.201752 0.015803285098255942
223.247208 0.005293451984856517
248.091202 0.7591686122358443
268.462128 0.004515224313787413
281.962494 0.004802830192225994
318.223938 0.004973889897702537
END IONS

BEGIN IONS
CHARGE=1+
PRECURSORTYPE=M+H
FORMULA=C16H12O4
ONTOLOGY=
INCHIKEY=IPRIGHIBTRMTDP-UHFFFAOYSA-N
INCHI=InChI=1S/C16H12O4/c1-19-11-7-8-12-13(9-11)20-16(15(18)14(12)17)10-5-3-2-4-6-10/h2-9,18H,1H3
SMILES=COc1ccc2c(=O)c(O)c(-c3ccccc3)oc2c1
IONMODE=positive
INSTRUMENTTYPE=LC-ESI-Orbitrap
INSTRUMENT=Orbitrap
COMMENT=DB#=CCMSLIB00010117310; origin=GNPS
NUM_PEAKS=46
COMPOUND_NAME=3-Hydroxy-7-methoxyflavone
PRECURSOR_MZ=269.081
COLLISION_ENERGY=205060
PARENT_MASS=268.07372354800924
51.399601 0.0010048068687946424
53.039139 0.006118001174247791
54.328308 0.0009241559492816704
58.56628 0.000995557910134898
60.85627 0.0009149069906219259
79.054443 0.0011017359555487649
86.271683 0.000953382658646463
89.038696 0.005808715996665935
91.054283 0.006711044403510609
95.049088 0.004923775632101582
105.033417 0.05896285137256396
108.020203 0.00403587560076611
125.40786 0.0011272630814496596
135.043762 0.022737270010769486
135.05452 0.0016296665158469807
141.069687 0.0013181615881867862
142.077637 0.004038835267537228
151.038849 0.03954891718741387
152.062149 0.006758029113502111
153.069717 0.014381020840863528
154.077011 0.0014269293420253813
163.038574 0.023368048991364063
165.069366 0.0016096887651419326
167.08577 0.0013226010883434635
169.05043 0.0013237109633826326
169.064804 0.005677010825351173
170.072266 0.01052642482982841
180.056702 0.006796134823180258
181.063965 0.010633712750281446
183.079605 0.0010725092461839722
185.095749 0.005037722802789634
195.080139 0.02088155894527835
197.059494 0.005789108204307277
198.066757 0.004143163521219146
213.091019 0.01645759703914936
223.075531 0.0018542312321055772
225.054016 0.007237125172076876
226.062119 0.28532519523626837
237.054886 0.0017450935199205921
240.077789 0.004954482174851934
251.06987 0.0016281866824614216
254.056824 0.13094342707954512
266.349213 0.0011076552890910013
268.069122 0.00467553358167404
269.080322 1.0
282.865875 0.0011054355390126625
END IONS

BEGIN IONS
CHARGE=1+
PRECURSORTYPE=M+H
FORMULA=C16H12O4
ONTOLOGY=
INCHIKEY=IPRIGHIBTRMTDP-UHFFFAOYSA-N
INCHI=InChI=1S/C16H12O4/c1-19-11-7-8-12-13(9-11)20-16(15(18)14(12)17)10-5-3-2-4-6-10/h2-9,18H,1H3
SMILES=COc1ccc2c(=O)c(O)c(-c3ccccc3)oc2c1
IONMODE=positive
INSTRUMENTTYPE=LC-ESI-Orbitrap
INSTRUMENT=Orbitrap
COMMENT=DB#=CCMSLIB00010117311; origin=GNPS
NUM_PEAKS=67
COMPOUND_NAME=3-Hydroxy-7-methoxyflavone
PRECURSOR_MZ=269.081
COLLISION_ENERGY=205060
PARENT_MASS=268.07372354800924
53.03928 0.0015036635098980582
55.611179 0.000249002921281444
57.033958 0.0002785384066305628
67.054527 0.0003563891657010725
79.054466 0.0005511014260517663
89.038513 0.0024192635557207416
90.897034 0.00027930667070033755
91.054176 0.0031039575672388983
92.025581 0.0003229269973286605
95.049217 0.0019553174202512017
95.085907 0.0004475565019810116
105.033379 0.03763290328187045
107.049217 0.0004526782624461767
108.020737 0.0013705831004781847
115.054733 0.00035579162698013664
117.033478 0.0006732554131459543
119.049103 0.0005440163240749546
125.059547 0.0003409385216311578
133.028427 0.0006471344347736122
135.043961 0.015362122976541825
141.070175 0.000554089119656446
142.077972 0.0006578901317504589
145.02951 0.0003075617159331651
151.038712 0.030375368702731487
152.062088 0.0025380883985125723
153.06958 0.006733663846226996
154.078461 0.0002904891810492814
155.086136 0.0004058141541899159
163.038788 0.01877927619622557
163.054504 0.000633220318843247
165.069946 0.0022994997235102977
167.085159 0.0007083394723323353
169.050079 0.000864894617217549
169.064835 0.0013447182101291007
170.072372 0.005615242085983773
176.493027 0.0003153297193053322
180.056793 0.0021247623289737476
181.048935 0.0014223982438507717
181.064621 0.005466625669819565
182.072342 0.0011570056890807994
185.095688 0.004706385691440224
185.351883 0.00032924383523569745
195.080093 0.013292334209894183
197.059555 0.0007022787224485566
197.094971 0.00045933655105089135
198.067871 0.002752946250026249
208.051804 0.0005537476689587683
209.059021 0.0006036848334941282
210.066833 0.0005986484357033825
213.090912 0.012948664082681603
223.075516 0.002727422810374843
225.05513 0.002761738605491449
226.062119 0.1463368913065116
236.045227 0.00042314277709705787
237.055588 0.00036330354232904543
240.077698 0.004708263670277451
241.086044 0.0021585659480438373
251.071609 0.002061423224554539
251.199112 0.0004168259391900209
254.056931 0.1064355603146195
267.063446 0.0004370568930274231
267.934631 0.0005219073914003252
268.070953 0.001286244778151799
269.080353 1.0
270.23407 0.0006989495781461992
355.145996 0.00033812155337531696
554.205261 0.0003386337294218335
END IONS

BEGIN IONS
CHARGE=1+
PRECURSORTYPE=M+H
FORMULA=C16H12O4
ONTOLOGY=
INCHIKEY=IPRIGHIBTRMTDP-UHFFFAOYSA-N
INCHI=InChI=1S/C16H12O4/c1-19-11-7-8-12-13(9-11)20-16(15(18)14(12)17)10-5-3-2-4-6-10/h2-9,18H,1H3
SMILES=COc1ccc2c(=O)c(O)c(-c3ccccc3)oc2c1
IONMODE=positive
INSTRUMENTTYPE=LC-ESI-Orbitrap
INSTRUMENT=Orbitrap
COMMENT=DB#=CCMSLIB00010117313; origin=GNPS
NUM_PEAKS=39
COMPOUND_NAME=3-Hydroxy-7-methoxyflavone
PRECURSOR_MZ=269.081
COLLISION_ENERGY=205060
PARENT_MASS=268.07372354800924
50.649189 0.001581645514127266
53.039021 0.010677648451371079
67.054611 0.0018878367418513405
75.925369 0.001871396944389645
79.021637 0.0019022215646303238
79.054466 0.007808218802744351
83.013062 0.00668825760066636
89.038742 0.009769349641612416
91.054337 0.012974425155082089
92.367561 0.0021741632143091995
95.049057 0.0041167992810328576
105.033508 0.08611713903684706
107.048767 0.0072431007649985755
117.033302 0.0016946691216764209
123.04377 0.0027653109313693254
129.069931 0.0032598748383419916
135.044067 0.048108327305407594
137.475723 0.0017693332018149537
151.038925 0.0616711602113062
152.061935 0.01070025317288091
161.058624 0.00240021042940751
163.039032 0.026015294491571864
165.069489 0.006266302799149514
166.077652 0.0025358387584664957
167.085739 0.015348605905175249
185.095764 0.0068971800267420705
186.081757 0.0015638357335437628
195.080444 0.03224529273799347
197.060226 0.0018104326954691918
198.067261 0.010095405624602705
203.153839 0.0016857642313846694
211.075775 0.0023399311720479605
213.090866 0.012011327020451108
226.062256 0.007150626904276539
240.077606 0.009809764143705749
251.068192 0.006147114267552224
253.048264 0.013938208281273975
254.057434 0.008450740886872274
269.080536 1.0
END IONS

BEGIN IONS
CHARGE=1+
PRECURSORTYPE=M+H
FORMULA=C22H21NO6
ONTOLOGY=
INCHIKEY=NOXAIIKFHLFPJK-UHFFFAOYSA-N
INCHI=InChI=1S/C22H21NO6/c1-13-16-5-4-15(26-2)10-19(16)29-22(25)17(13)6-8-21(24)23-11-14-3-7-18-20(9-14)28-12-27-18/h3-5,7,9-10H,6,8,11-12H2,1-2H3,(H,23,24)
SMILES=COc1ccc2c(C)c(CCC(O)=NCc3ccc4c(c3)OCO4)c(=O)oc2c1
IONMODE=positive
INSTRUMENTTYPE=LC-ESI-Orbitrap
INSTRUMENT=Orbitrap
COMMENT=DB#=CCMSLIB00010119660; origin=GNPS
NUM_PEAKS=38
COMPOUND_NAME="N-(2H-benzo[3,4-d]1,3-dioxolen-5-ylmethyl)-3-(7-methoxy-4-methyl-2-oxochromen- 3-yl)propanamide "
PRECURSOR_MZ=396.144
COLLISION_ENERGY=205060
PARENT_MASS=395.13672354800923
50.015659 0.0007314055187317888
51.02327 0.0029844319456569755
53.03912 0.0058875215030631265
65.038872 0.0006088286234175272
67.054741 0.0009558293932409883
77.038773 0.005709514614647196
79.054573 0.035824111618881396
81.033783 0.0015394215970349911
91.054512 0.0029632513791872316
92.356468 0.00044659449726629864
95.049232 0.004728336139195078
101.949989 0.000471267603951798
103.054558 0.00047352085570389837
105.033501 0.016217441497979792
105.044952 0.001369413752339016
107.049263 0.0016484789818366503
115.054337 0.0005647775516639644
116.062187 0.0004708169536013779
128.062195 0.0006641459539315919
129.069763 0.0005861834433089182
134.637131 0.0009099757200857452
135.044052 1.0
135.453644 0.0009337475260704044
144.057205 0.0020593594388321574
147.080109 0.0030510155349315424
158.073395 0.0008895837917292366
160.051895 0.0006367689451435721
174.067795 0.0009397186432134705
175.075607 0.013073141340511293
177.888229 0.0004615786214177663
189.091446 0.0017007544224853794
203.070236 0.2723958296365922
203.824188 0.0004652964868087319
217.085785 0.030105020684287772
245.080582 0.1377063542037397
246.821564 0.00037336381532303574
356.368622 0.0003960089954316447
396.143036 0.007228093632975258
END IONS

BEGIN IONS
CHARGE=1+
PRECURSORTYPE=M+H
FORMULA=C17H14ClNO3
ONTOLOGY=
INCHIKEY=CRWHAWNMCHVQSU-UHFFFAOYSA-N
INCHI=InChI=1S/C17H14ClNO3/c18-14-5-1-13(2-6-14)10-19-17(20)8-4-12-3-7-15-16(9-12)22-11-21-15/h1-9H,10-11H2,(H,19,20)/b8-4+
SMILES=OC(C=Cc1ccc2c(c1)OCO2)=NCc1ccc(Cl)cc1
IONMODE=positive
INSTRUMENTTYPE=LC-ESI-Orbitrap
INSTRUMENT=Orbitrap
COMMENT=DB#=CCMSLIB00010117715; origin=GNPS
NUM_PEAKS=44
COMPOUND_NAME="(2E)-3-(2H-benzo[3,4-d]1,3-dioxolen-5-yl)-N-[(4-chlorophenyl)methyl]prop-2-ena mide "
PRECURSOR_MZ=316.074
COLLISION_ENERGY=205060
PARENT_MASS=315.06672354800924
51.023731 0.0003022688786583004
59.8297 0.0002485216967458088
63.02343 0.0015581764454667163
64.891693 0.0002870614951962374
65.038818 0.00023777029304332834
66.046791 0.0002510890493225219
72.98439 0.00043358748746718807
78.425339 0.00023611774425831762
89.038567 0.031689098442567204
90.046204 0.0023722731272825337
91.054298 0.0005447607396588022
98.935593 0.0002827235546355843
98.99939 0.006662712746966531
106.064621 0.0013543325855156618
116.049744 0.0004459619301549469
116.062027 0.00030847577320200134
117.033318 0.01957082048968483
119.048767 0.00030519034883180144
124.650421 0.00042176389437443277
125.015083 1.0
125.380966 0.0003461597874601923
130.064163 0.00031466299454588077
135.043839 0.00891180213356639
140.026184 0.0011731817615587721
144.043839 0.0019676937729522304
145.028122 0.04655322391414364
146.059662 0.00042062284878478253
147.043701 0.00893115072559089
149.059967 0.0005568204111494161
151.030014 0.004031343578034101
163.03862 0.0266557594512216
166.041626 0.0004492965375247007
174.055099 0.001756521646067646
175.038651 0.2097574074122164
176.025879 0.00028247763963781483
185.415909 0.00030729538121270796
186.05397 0.0029633249061214576
190.049454 0.0011628434950525443
213.6548 0.0002972620493037143
245.036682 0.00037069226763767287
248.416672 0.0002764379672925971
316.072632 0.30209390521908747
321.356934 0.0002987473758902418
326.146454 0.00026583411258877826
END IONS

BEGIN IONS
CHARGE=1+
PRECURSORTYPE=M+H
FORMULA=C23H17F3N4O
ONTOLOGY=
INCHIKEY=HAABNOIHSDVBOG-UHFFFAOYSA-N
INCHI=InChI=1S/C23H17F3N4O/c24-23(25,26)20-12-18(16-7-2-1-3-8-16)27-21-13-19(28-30(20)21)22(31)29-11-10-15-6-4-5-9-17(15)14-29/h1-9,12-13H,10-11,14H2
SMILES=O=C(c1cc2nc(-c3ccccc3)cc(C(F)(F)F)n2n1)N1CCc2ccccc2C1
IONMODE=positive
INSTRUMENTTYPE=LC-ESI-Orbitrap
INSTRUMENT=Orbitrap
COMMENT=DB#=CCMSLIB00010118307; origin=GNPS
NUM_PEAKS=91
COMPOUND_NAME="5-phenyl-7-(trifluoromethyl)(8-hydropyrazolo[1,5-a]pyrimidin-2-yl) 2-1,2,3,4-t etrahydroisoquinolyl ketone "
PRECURSOR_MZ=423.143
COLLISION_ENERGY=205060
PARENT_MASS=422.1357235480092
59.210602 0.00040587941698793495
65.039124 0.000550039124289594
67.029411 0.0005994513064554231
73.95697 0.000551776793455029
75.52903 0.0004225432187282596
75.802994 0.00043406084640171933
78.215378 0.0004280012821325104
82.404953 0.00047993085680723876
89.038673 0.0007122661353498137
91.054268 0.024093028034663202
103.041573 0.000874203534882461
105.069778 0.009069942431466105
114.014961 0.0006589330586568495
115.054123 0.12281571644233358
116.049294 0.014533085176354262
116.061684 0.001649114871427185
117.06971 0.18494734728761875
128.049194 0.002197460882170971
130.064926 0.0064151403916385494
131.048828 0.0010497749540208283
132.080612 0.03783676585371374
133.044662 0.0021452862515882964
133.064651 0.0031474535260381706
134.060303 0.0005303900960342915
135.080551 0.000603840034988637
136.215897 0.0005113425686439471
140.049347 0.018995174537283208
140.061493 0.0007845576281938694
141.045288 0.0006285684038813648
141.056793 0.0015507583411016057
142.064987 0.22299815833801837
145.05217 0.002781963778241691
146.059906 0.0006743493030476311
153.044739 0.0017942102467410014
154.028503 0.06498662128409474
158.040192 0.0027407498300871446
160.07547 0.38648172698294564
165.045013 0.0017894873510605886
166.052383 0.0017973736957344855
167.06041 0.0018671477960696418
171.05513 0.0008858771072246135
172.038422 0.0032983411319034367
174.034424 0.0008250141308147645
176.030228 0.00672099244256491
177.038254 0.017953196816697024
178.045578 0.0005568784119022674
183.041214 0.028138410963034963
183.091263 0.0051512088518827735
185.051193 0.0008387595394695511
188.049576 0.0005486133444615449
190.045761 0.0008511460017257283
192.055405 0.0021928716533494374
193.06311 0.038533749411531655
194.041 0.003643580350579655
195.055389 0.0005473880649218151
196.036331 0.015998564061490677
197.044327 0.035726723097250036
206.04129 0.0005694876522565772
208.036392 0.014143691338628145
210.036804 0.0005684183173855404
210.041595 0.000686958543401941
210.06604 0.009031691432016724
212.031937 0.004069465240779905
212.061295 0.0004836958066656811
213.045502 0.002731415427775385
214.047104 0.016302299720484775
215.041199 0.021759338345484096
220.050308 0.0018083566559724269
222.044907 0.01617348942414446
226.047745 0.0007191722563919269
233.052124 0.0023660147912181588
235.047241 0.06183627164278085
236.053711 0.0005044810032214604
240.055893 0.0028031054197544827
242.051773 0.15656232096995087
253.057388 0.01354559897857133
260.062378 0.06346763109978686
261.050262 0.007894119629521804
262.057312 0.021494566575853403
263.066986 0.0007361925030892639
264.073608 0.0053020296243186
276.074493 0.0023285880707318678
280.068268 0.0006342938010033747
283.07782 0.0010161354612027932
290.051727 0.026266785327192857
308.063293 1.0
310.068878 0.00208927983771774
380.135498 0.0006469921525969377
405.131439 0.000800553095639796
422.132599 0.0006305734067645589
423.141571 0.972512034250083
END IONS

BEGIN IONS
CHARGE=1+
PRECURSORTYPE=M+H
FORMULA=C29H30N4O2
ONTOLOGY=
INCHIKEY=HXNGFYZLCLPCNU-UHFFFAOYSA-N
INCHI=InChI=1S/C29H30N4O2/c34-29(35-20-23-14-9-17-32-16-8-7-15-26(23)32)25-19-28-30-24(21-10-3-1-4-11-21)18-27(33(28)31-25)22-12-5-2-6-13-22/h1-6,10-13,18-19,23,26H,7-9,14-17,20H2
SMILES=O=C(OCC1CCCN2CCCCC12)c1cc2nc(-c3ccccc3)cc(-c3ccccc3)n2n1
IONMODE=positive
INSTRUMENTTYPE=LC-ESI-Orbitrap
INSTRUMENT=Orbitrap
COMMENT=DB#=CCMSLIB00010118916; origin=GNPS
NUM_PEAKS=53
COMPOUND_NAME="(6-azabicyclo[4.4.0]dec-2-yl)methyl 5,7-diphenyl-8-hydropyrazolo[1,5-a]pyrimid ine-2-carboxylate "
PRECURSOR_MZ=467.244
COLLISION_ENERGY=205060
PARENT_MASS=466.23672354800925
53.682621 0.0006176910953859316
55.0546 0.00476271873576478
56.049889 0.012782679590866906
58.065571 0.040964321224428064
60.529968 0.0008446491681037993
61.147011 0.0006198389635819998
67.054588 0.021935461930378642
67.058548 0.0008054505735255556
68.049667 0.001319149050418521
69.057709 0.0007173879774867616
69.070213 0.014109704158004345
70.060928 0.0010075291729723006
70.065407 0.025947679720633943
72.080917 0.0006717457783203133
75.210007 0.0006975201966731312
79.054413 0.011890777322449609
80.049332 0.0007363608132186968
81.070084 0.011809516309031697
82.065353 0.008880898023692777
82.386864 0.0006873178227418074
83.073242 0.002965490022704757
84.080971 0.06624061314477438
91.054008 0.0030804009711944027
93.069809 0.010202373931323705
95.08535 0.0014755854506988179
96.080803 0.031009131124668535
97.08902 0.005489772120133848
98.096428 0.23175479936673685
105.070267 0.0007555126379669712
107.085136 0.005431958667856347
109.088707 0.0011911719037361271
109.101044 0.005103692811890598
110.096397 0.031467700984529084
111.103737 0.002738710939003228
122.096359 0.004657831172190118
123.104012 0.00111635449490642
124.111977 0.07382634664623805
134.881073 0.0005512861703241581
136.111862 0.005489056164068492
137.119781 0.010662375703314965
140.049484 0.0031575452372365168
150.127441 0.011262346886083335
151.658707 0.0008212016069633886
152.143219 1.0
152.630463 0.0006397067443956302
163.122681 0.0007231156260096099
167.061646 0.0007777072759930087
204.079483 0.001419203910552029
243.090775 0.0024730912387561335
270.102722 0.005359110138206369
316.107513 0.020623293451597344
467.243256 0.6457195224215067
469.875305 0.0009438090831556122
END IONS

BEGIN IONS
CHARGE=1+
PRECURSORTYPE=M+H
FORMULA=C17H15ClO2
ONTOLOGY=
INCHIKEY=GGOYJPNYLCAKIL-UHFFFAOYSA-N
INCHI=InChI=1S/C17H15ClO2/c1-2-20-16-10-3-13(4-11-16)5-12-17(19)14-6-8-15(18)9-7-14/h3-12H,2H2,1H3/b12-5+
SMILES=CCOc1ccc(C=CC(=O)c2ccc(Cl)cc2)cc1
IONMODE=positive
INSTRUMENTTYPE=LC-ESI-Orbitrap
INSTRUMENT=Orbitrap
COMMENT=DB#=CCMSLIB00010115594; origin=GNPS
NUM_PEAKS=70
COMPOUND_NAME=(2E)-1-(4-chlorophenyl)-3-(4-ethoxyphenyl)prop-2-en-1-one
PRECURSOR_MZ=287.083
COLLISION_ENERGY=205060
PARENT_MASS=286.07572354800925
50.015579 0.006812682749711877
51.023441 0.01193330896952236
55.018291 0.0014369802757933819
60.984451 0.0009486334910895728
62.963779 0.0008723979771050046
65.039177 0.0025725682645923393
66.731331 0.0005825001800239965
75.02356 0.00402340954292837
79.018173 0.0088570115881362
84.960388 0.0009303775365212062
86.99984 0.05078333258393767
91.05439 0.0618341013793726
93.033653 0.0008862589796476533
94.041527 0.014411385765561764
95.049187 0.017238016064563873
98.036453 0.0006119125512730316
102.046471 0.005662388575288402
107.049026 0.00793863565137753
110.999229 0.004404249039618464
111.043953 0.0037713759479150854
114.994713 0.005168463582244259
119.049202 0.20701069224213212
121.028458 0.0009014722751212922
122.07309 0.0014408681179699785
123.044052 0.015871693094414725
123.053467 0.0006272948833630443
123.081093 0.0006200263088589724
125.0158 0.0012408978007998138
129.010178 0.0248313099086898
129.0271 0.0006494386801080077
130.041245 0.0027634106044783207
131.050064 0.0009063743369961315
132.901932 0.0006676946346763743
137.015381 0.02457268388563794
138.994614 1.0
139.004868 0.044414709025439675
141.009399 0.0006933882003651868
146.036942 0.0007042065438131077
147.044083 0.3907862873439919
151.075302 0.0029045561791504154
157.005569 0.0014356279828623916
165.010132 0.07274710533246291
167.085724 0.005854245134872626
175.075363 0.06093110777470394
177.070145 0.0027588466158362294
178.077728 0.015420872438545893
179.083878 0.000776892288853827
181.064209 0.0022088014661559956
182.072754 0.0009065433736125052
195.080658 0.00657265075446113
196.088669 0.0033110892415293214
199.030014 0.0010338279457419506
205.064743 0.0028575639997985083
206.072479 0.007587039489320098
208.157349 0.0022961933968212327
208.17778 0.0007567769315053488
213.046432 0.04604641948329563
217.041626 0.0006298304326086508
223.075165 0.016081805608567316
224.083252 0.013795923445344884
231.057297 0.002285713126606059
241.013351 0.0014023277694367598
241.041321 0.04185650887323911
244.029526 0.0006053201232344548
251.107254 0.0013681823729292592
252.114838 0.004920317829407571
258.043579 0.0025532980903257303
259.05191 0.04468077265961198
269.072174 0.004516489352890644
287.083008 0.8583677689093656
END IONS

BEGIN IONS
CHARGE=1+
PRECURSORTYPE=M+H
FORMULA=C17H14N2O3
ONTOLOGY=
INCHIKEY=XBIGUQRVKDBRJP-UHFFFAOYSA-N
INCHI=InChI=1S/C17H14N2O3/c1-21-13-8-6-12(7-9-13)19-17(20)14-10-11-4-2-3-5-15(11)22-16(14)18/h2-10,18H,1H3,(H,19,20)
SMILES=COc1ccc(NC(=O)c2cc3ccccc3oc2=N)cc1
IONMODE=positive
INSTRUMENTTYPE=LC-ESI-Orbitrap
INSTRUMENT=Orbitrap
COMMENT=DB#=CCMSLIB00010115859; origin=GNPS
NUM_PEAKS=47
COMPOUND_NAME=(2-iminochromen-3-yl)-N-(4-methoxyphenyl)carboxamide
PRECURSOR_MZ=295.108
COLLISION_ENERGY=205060
PARENT_MASS=294.1007235480092
50.015759 0.0013197623045901681
51.023449 0.0031303262658453138
51.345871 0.0007514876901751727
51.635521 0.0008314732843927586
51.914371 0.0006652205047886664
53.039169 0.0012383110057665007
75.02327 0.0006916031876981318
77.038757 0.006773858530191421
84.959991 0.001014267587408341
89.038452 0.00804064608259036
90.976624 0.0011053506593576865
91.054321 0.004514998345847659
92.025543 0.0010335311336596969
94.351723 0.0007276176437332753
95.048981 0.0028662900503783613
101.038483 0.000920881265363725
105.033607 0.0008494805124103303
108.044823 0.0008277043296914064
116.049294 0.07598443002935597
119.048363 0.001335466282512469
123.067909 0.0012998705992219202
124.075401 0.000967574426386033
128.049332 0.25118512686720296
128.475006 0.0007927368055177497
129.044754 0.007023656472342154
134.060181 0.0015760512242821189
144.044205 0.02797025038422399
145.027863 0.0012992424401050283
146.059952 0.04926568199235321
148.393158 0.0008237259886177568
169.07579 0.0016459862726294322
172.039047 1.0
190.049576 0.30437429070366384
213.065369 0.005099186324557253
232.096252 0.001787740846674735
233.070099 0.003914897002843467
234.078339 0.6633240924147693
235.062775 0.0028361384127675434
235.085739 0.0008576465809299268
245.070328 0.0015586721553814391
246.078232 0.0033757270941778025
247.08609 0.0030356836255669138
249.102066 0.0017448166403537793
262.073181 0.08703458644097607
277.096588 0.39128785182145204
278.080597 0.004236305084319892
295.107147 0.9140140205114891
END IONS

BEGIN IONS
CHARGE=1+
PRECURSORTYPE=M+H
FORMULA=C15H26N2
ONTOLOGY=
INCHIKEY=SLRCCWJSBJZJBV-UHFFFAOYSA-N
INCHI=InChI=1S/C15H26N2/c1-3-7-16-11-13-9-12(14(16)5-1)10-17-8-4-2-6-15(13)17/h12-15H,1-11H2/t12?,13?,14-,15?/m1/s1
SMILES=C1CCN2CC3CC(CN4CCCCC34)C2C1
IONMODE=positive
INSTRUMENTTYPE=LC-ESI-Orbitrap
INSTRUMENT=Orbitrap
COMMENT=DB#=CCMSLIB00010119812; origin=GNPS
NUM_PEAKS=39
COMPOUND_NAME="Pachycarpine HI, (+)-Sparteine HI "
PRECURSOR_MZ=235.217
COLLISION_ENERGY=205060
PARENT_MASS=234.20972354800926
50.568062 0.0002559745494554295
52.309319 0.0002983883950498288
52.363979 0.00025737280810139875
53.939602 0.0003358617267618036
58.155041 0.00035543734780537245
58.960812 0.0027939072091326053
59.781399 0.00029270214322288737
61.011051 0.0032436804069193668
66.370079 0.000260448977122531
70.065666 0.0005501681685673507
73.932419 0.00028710910863901057
76.151001 0.00026147436679624175
78.793678 0.0003084558573008071
79.021393 0.004248096200940581
82.374023 0.00041090160742881767
84.081047 0.0024284023990762543
88.593407 0.00027508408428367535
96.081329 0.0004906023502490625
98.096481 0.07568102886481254
99.986816 0.001137623234360547
117.997551 0.00041546925233898376
118.621384 0.0003663437652439323
124.111954 0.0005744978690072149
134.096909 0.0020642958476658727
150.127533 0.0007056545299991265
152.143387 0.0017976013152580126
156.973923 0.0006544782635566536
158.991501 0.0003475138821448803
164.143753 0.00044035825623723565
174.985153 0.006558578787540099
181.915726 0.000399715538261064
190.159164 0.0005516596444563846
211.929474 0.00033576850951873896
216.977264 0.0020045435948614554
233.201248 0.05395115733402041
234.95163 0.007881704335599227
234.988159 0.011928451291520242
235.216705 1.0
252.96312 0.0006217590112409741
END IONS

BEGIN IONS
CHARGE=1+
PRECURSORTYPE=M+H
FORMULA=C15H26N2
ONTOLOGY=
INCHIKEY=SLRCCWJSBJZJBV-UHFFFAOYSA-N
INCHI=InChI=1S/C15H26N2/c1-3-7-16-11-13-9-12(14(16)5-1)10-17-8-4-2-6-15(13)17/h12-15H,1-11H2/t12-,13-,14-,15+/m1/s1
SMILES=C1CCN2CC3CC(CN4CCCCC34)C2C1
IONMODE=positive
INSTRUMENTTYPE=LC-ESI-Orbitrap
INSTRUMENT=Orbitrap
COMMENT=DB#=CCMSLIB00010124313; origin=GNPS
NUM_PEAKS=22
COMPOUND_NAME=Pachycarpine
PRECURSOR_MZ=235.217
COLLISION_ENERGY=205060
PARENT_MASS=234.20972354800926
58.961021 0.0013910791739496341
61.011101 0.003922573962581731
70.065468 0.0004986081439761766
73.512833 0.00035165404285621805
79.021553 0.004697481711659222
84.081093 0.0020800155369974753
89.26004 0.00041898103191558234
98.096443 0.0880577458406163
110.096657 0.0004004661099242571
116.761917 0.00044202757817051857
134.096481 0.0031707127597591766
152.142899 0.0009269113743769016
156.974869 0.0007646792257396258
164.144867 0.0003649899656891306
174.984863 0.010099048358904641
190.159363 0.0005215252152521525
211.613754 0.00047698582248980383
216.977631 0.00255337606007639
233.20108 0.06298180876545607
234.952682 0.00443866122871755
234.987961 0.017361688353725643
235.216629 1.0
END IONS

BEGIN IONS
CHARGE=1+
PRECURSORTYPE=M+H
FORMULA=C15H26N2
ONTOLOGY=
INCHIKEY=SLRCCWJSBJZJBV-UHFFFAOYSA-N
INCHI=InChI=1S/C15H26N2/c1-3-7-16-11-13-9-12(14(16)5-1)10-17-8-4-2-6-15(13)17/h12-15H,1-11H2/t12-,13-,14-,15+/m0/s1
SMILES=C1CCN2CC3CC(CN4CCCCC34)C2C1
IONMODE=positive
INSTRUMENTTYPE=LC-ESI-Orbitrap
INSTRUMENT=Orbitrap
COMMENT=DB#=CCMSLIB00010124394; origin=GNPS
NUM_PEAKS=23
COMPOUND_NAME=lupinidine
PRECURSOR_MZ=235.217
COLLISION_ENERGY=205060
PARENT_MASS=234.20972354800926
53.939442 0.0010664910409311282
57.070358 0.0005953164276097038
58.960869 0.010062540469526107
68.299683 0.00050321771148999
70.065323 0.000667060722880203
73.958107 0.0005276027107251877
84.08107 0.002452808476790015
98.096397 0.05307989593852723
99.986801 0.003328048573306245
117.997124 0.002751675864110662
138.723953 0.0005628702716025399
150.127716 0.0006914457221154007
152.143341 0.0023709877355545584
188.971497 0.0005997500638342852
199.927017 0.0010457335622433151
211.928314 0.0011142533948050278
211.984024 0.0005965256011254988
233.200958 0.01972544909208199
234.951233 0.019487443438389686
235.216446 1.0
236.153137 0.0007936208842000723
240.700073 0.000596928658964097
252.96019 0.0007329606794910267
END IONS

BEGIN IONS
CHARGE=1+
PRECURSORTYPE=M+H
FORMULA=C22H21N5O4S
ONTOLOGY=
INCHIKEY=FXOQXDOECXRMKB-UHFFFAOYSA-N
INCHI=InChI=1S/C22H21N5O4S/c1-13-4-7-15(8-5-13)27-20-19(21(29)24-12-23-20)26-22(27)32-11-18(28)25-14-6-9-16(30-2)17(10-14)31-3/h4-10,12H,11H2,1-3H3,(H,25,28)(H,23,24,29)
SMILES=COc1ccc(N=C(O)CSc2nc3c(O)ncnc3n2-c2ccc(C)cc2)cc1OC
IONMODE=positive
INSTRUMENTTYPE=LC-ESI-Orbitrap
INSTRUMENT=Orbitrap
COMMENT=DB#=CCMSLIB00010124440; origin=GNPS
NUM_PEAKS=67
COMPOUND_NAME="N-(3,4-dimethoxyphenyl)-2-[9-(4-methylphenyl)-6-oxohydropurin-8-ylthio]acetami de "
PRECURSOR_MZ=452.139
COLLISION_ENERGY=205060
PARENT_MASS=451.13172354800923
54.482971 0.0012755551208060256
91.012703 0.0012638168834979947
92.364326 0.001529883595813362
104.267776 0.0017047833317030226
105.069527 0.0019195930744399883
114.299263 0.0014876259415044508
118.06485 0.0016570478333170302
130.065506 0.01108715641201213
130.075043 0.0017204343147803971
131.073013 0.0017540839283967525
134.06015 0.0022952166682969773
134.641296 0.0015960089993152695
135.026062 0.0012720336496136163
135.0681 0.0018785092438618801
136.186783 0.0018104274674753007
145.075623 0.002804656167465519
146.08345 0.0016175291010466595
148.039047 0.005861684437053702
148.075821 0.003079330920473442
150.037216 0.0017090873520493005
157.07605 0.00638599237014575
158.060043 0.006423946004108383
159.067673 0.002138706837523232
162.037231 0.06980573217255209
162.054306 0.01028113078352734
163.062637 0.010429815122762398
164.053131 0.008761811601291206
164.067703 0.0013498972904235546
169.076111 0.002484202288956275
172.086823 0.018506113665264598
174.036819 0.0024071211973002056
175.032455 0.009193778734226743
177.078384 0.004804069255600118
183.078888 0.0013041181649222342
184.086975 0.004948058299911963
185.094406 0.0051429130392252765
185.366547 0.0014379340702337865
189.047974 0.061611659982392646
190.032104 0.0710390296390492
193.043106 0.032948058299911966
198.066513 0.006869999021813558
202.043472 0.017710261175780104
208.324692 0.006206006064755943
211.074707 0.002643451041768561
212.081741 0.23137709087352049
213.089813 0.02286569500146728
216.058914 0.044101340115426
217.042862 0.0028731292184290325
226.043228 0.0018609018878998336
227.092728 0.0018346864912452314
227.893707 0.0012822067886139098
230.038086 0.12806456030519417
237.076859 0.002873520493005967
238.084579 0.024330627017509536
239.092316 0.004366624278587499
244.053696 0.7325321334246307
253.054367 0.007215885747823535
256.039612 0.0018562065929766214
257.048798 0.058348821285336985
262.063965 0.02182725227428348
271.064453 0.43880543871661937
299.059418 1.0
352.496796 0.0017059571554338257
403.847992 0.0013483321921158172
439.181091 0.001417979066810134
452.13974 0.006571065245035704
468.413513 0.001692262545241123
END IONS

BEGIN IONS
CHARGE=1+
PRECURSORTYPE=M+H
FORMULA=C25H23FN2O
ONTOLOGY=
INCHIKEY=MAPYRMBCXVPHDO-UHFFFAOYSA-N
INCHI=InChI=1S/C25H23FN2O/c1-29-20-12-8-18(9-13-20)25-24-22(21-4-2-3-5-23(21)27-24)14-15-28(25)16-17-6-10-19(26)11-7-17/h2-13,25,27H,14-16H2,1H3
SMILES=COc1ccc(C2c3[nH]c4ccccc4c3CCN2Cc2ccc(F)cc2)cc1
IONMODE=positive
INSTRUMENTTYPE=LC-ESI-Orbitrap
INSTRUMENT=Orbitrap
COMMENT=DB#=CCMSLIB00010115325; origin=GNPS
NUM_PEAKS=98
COMPOUND_NAME="1-{2-[(4-fluorophenyl)methyl](1,2,3,4-tetrahydrobeta-carbolinyl)}-4-methoxyben zene "
PRECURSOR_MZ=387.187
COLLISION_ENERGY=205060
PARENT_MASS=386.17972354800924
57.014019 0.0006337360130483308
65.039047 0.00041102848439711625
66.820007 0.0004285533218281986
78.046722 0.0004434257514318739
83.029381 0.008054888927580361
91.048363 0.0006248315010563214
91.054321 0.016467947640711657
93.070183 0.003378883385563664
95.049744 0.0006146007851506085
103.054108 0.001967234048277233
105.069511 0.0009295742146551974
106.041283 0.0006559025641773756
106.064972 0.001732685413253665
107.049057 0.0025739723387965987
108.750191 0.00097769647095244
109.044777 1.0
109.340393 0.0008514229125976678
110.048286 0.005274786609053842
111.052299 0.00045848763873750694
115.054123 0.00673673696621003
117.069893 0.0019470568030187433
118.065208 0.0004423837340711069
119.085747 0.0005861821298569613
121.064697 0.17956346293061132
124.051491 0.0004405838859025092
128.061874 0.0020511638102444704
129.069748 0.01782370695592058
130.064987 0.013295762607983786
132.056519 0.0008514229125976678
133.065125 0.003681542064441006
135.080505 0.0016560497728117967
138.071274 0.16472324113626877
142.064926 0.009967085513438898
143.072983 0.0019550140265009643
144.080673 0.10267821196641369
145.064697 0.004950908667557244
147.080566 0.01209137999663902
154.06517 0.0008487705047702607
155.072418 0.0005305762943323918
156.080719 0.03366748619753277
158.071136 0.0005624999171122554
158.096649 0.0017662194265001688
160.075836 0.0023559065238433464
165.070419 0.0006661332800830885
178.077637 0.0010162511133008211
180.081146 0.002705645441657164
181.088425 0.0005521744723555636
183.08017 0.0006361989631737802
191.086288 0.000841097467840976
192.080185 0.007703823805852841
193.088638 0.005701161167309528
194.072617 0.001967612963681148
202.076508 0.0008782311774246749
203.087494 0.0006107169022604767
204.080368 0.018235682728827488
205.087891 0.007738210378758154
206.096237 0.01849069279566248
207.103958 0.025517489503569666
208.089127 0.0034474670736723326
209.097916 0.0014875271469204693
209.439041 0.0007917437364810089
217.069595 0.0004566877905689093
217.088379 0.02505331813377343
218.074142 0.0027138868516923213
218.09613 0.07006998378052613
219.085861 0.0007574518924266747
219.103897 0.02573953393026403
220.075409 0.028443663710305534
220.110626 0.004079119051999129
221.08223 0.007539563978255561
221.119583 0.0009106284444594326
223.111191 0.003425679437947203
227.809387 0.00045754035022771867
230.097061 0.0006037069672880437
231.101868 0.0005455434527870459
232.112106 0.003795500872168531
233.083389 0.0033094471377961864
233.095322 0.0033662844483834807
233.121246 0.0008252777497275125
234.067642 0.000730927814152604
234.090759 0.039901118236194265
235.098816 0.10847211267883149
236.106613 0.08127953290340328
238.102936 0.000885714756652002
247.099686 0.0018766732667414771
248.106842 0.020155647080466285
249.115356 0.011590927476917895
250.122284 0.7744051359709508
251.152069 0.0007017513280511263
256.112183 0.006153775617286348
260.104706 0.0004353737990986739
262.122711 0.008793963422917144
264.137848 0.1479033758141708
276.120514 0.0007875756670379406
303.199463 0.0005803089410962742
344.142853 0.0008832518065265526
370.158234 0.0006124220215780955
387.185272 0.07511505292595633
END IONS

BEGIN IONS
CHARGE=1+
PRECURSORTYPE=M+H
FORMULA=C18H19NO5
ONTOLOGY=
INCHIKEY=MHHDPGHZHFJLBZ-UHFFFAOYSA-N
INCHI=InChI=1S/C18H19NO5/c20-11-16(17(21)23-12-14-7-3-1-4-8-14)19-18(22)24-13-15-9-5-2-6-10-15/h1-10,16,20H,11-13H2,(H,19,22)/t16-/m0/s1
SMILES=O=C(OCc1ccccc1)C(CO)N=C(O)OCc1ccccc1
IONMODE=positive
INSTRUMENTTYPE=LC-ESI-Orbitrap
INSTRUMENT=Orbitrap
COMMENT=DB#=CCMSLIB00010122503; origin=GNPS
NUM_PEAKS=26
COMPOUND_NAME=phenylmethyl (2S)-3-hydroxy-2-[(phenylmethoxy)carbonylamino]propanoate
PRECURSOR_MZ=330.134
COLLISION_ENERGY=205060
PARENT_MASS=329.12672354800924
51.40773 0.0013629164890052994
53.48595 0.0012774047539839098
60.044819 0.009116370928821437
61.844372 0.0012785761476143398
65.038887 0.029945506768312397
66.741798 0.001714334578134298
79.99157 0.0014958696660591039
91.054367 1.0
92.375183 0.0018683728405358424
98.984573 0.0023515727130882153
106.049713 0.0030110673270203024
118.050171 0.0016364369017107033
120.551949 0.0014015724788094893
138.570511 0.001432028713200669
141.070206 0.002896270751238163
150.091751 0.001693835189601773
153.069656 0.0025313816353592197
165.069885 0.02085490649936042
166.077621 0.03630500278791684
166.092041 0.0018426021806663825
178.086304 0.0017606046265362827
179.085281 0.0023638723462077304
181.101044 0.09062838239910787
194.081329 0.0032090328505629717
261.510986 0.0013810730902769643
286.143585 0.04087285224977861
END IONS

BEGIN IONS
CHARGE=1+
PRECURSORTYPE=M+H
FORMULA=C23H26N2O3
ONTOLOGY=
INCHIKEY=VLONLABMZBDAOH-UHFFFAOYSA-N
INCHI=InChI=1S/C23H26N2O3/c1-17-3-5-18(6-4-17)15-24-9-11-25(12-10-24)16-19-13-23(26)28-22-8-7-20(27-2)14-21(19)22/h3-8,13-14H,9-12,15-16H2,1-2H3
SMILES=COc1ccc2oc(=O)cc(CN3CCN(Cc4ccc(C)cc4)CC3)c2c1
IONMODE=positive
INSTRUMENTTYPE=LC-ESI-Orbitrap
INSTRUMENT=Orbitrap
COMMENT=DB#=CCMSLIB00010117263; origin=GNPS
NUM_PEAKS=44
COMPOUND_NAME=6-methoxy-4-({4-[(4-methylphenyl)methyl]piperazinyl}methyl)chromen-2-one
PRECURSOR_MZ=379.202
COLLISION_ENERGY=205060
PARENT_MASS=378.1947235480092
50.015598 0.00019810816565839177
51.02372 0.0006535405741178459
55.018429 0.00016686142317902448
56.050129 0.0012497424212012521
57.549759 0.00014070579963723233
63.023399 0.0001901214728250708
65.039146 0.0007552356748959088
70.065453 0.0003022851869185226
77.038559 0.0021736214109043367
79.054527 0.05216280914706066
81.033669 0.0013359414287130707
83.060623 0.02973964399587161
84.068367 0.007968364805145695
85.076477 0.0021491204010172563
87.091309 0.00018888051258403687
90.045868 0.00016835693936693717
91.054657 0.0002057766635581143
95.04921 0.00447684361826332
97.075951 0.0014829156685421925
102.046127 0.0002218773271981956
103.054268 0.029539594841118268
104.06221 0.000355614657789622
104.792633 0.0010152327551391982
105.069893 1.0
105.348633 0.0010470840679924025
148.112122 0.000334741070145564
150.128403 0.00019686720541735783
157.988632 0.00022585476386817617
161.060135 0.0017040929668864714
163.075058 0.00021363607841799588
175.075516 0.0002092768078276972
177.054642 0.00036312405822254526
189.055527 0.0002789296787923968
190.065796 0.0001466878643888831
191.070755 0.00020332656256940627
204.101105 0.0002233092043993886
230.081253 0.0007567311910838216
232.097412 0.0007835232044928107
273.122833 0.024375481985775667
274.132172 0.0008781543777449881
275.13855 0.010071092384844299
275.172729 0.0003409458713507337
293.118469 0.00019317614418761588
379.200958 0.18017689474582524
END IONS

BEGIN IONS
CHARGE=1+
PRECURSORTYPE=M+H
FORMULA=C16H14N2O2S
ONTOLOGY=
INCHIKEY=SYPXMILWPQNCMS-UHFFFAOYSA-N
INCHI=InChI=1S/C16H14N2O2S/c1-20-15-7-6-11(9-19)8-12(15)10-21-16-17-13-4-2-3-5-14(13)18-16/h2-9H,10H2,1H3,(H,17,18)
SMILES=COc1ccc(C=O)cc1CSc1nc2ccccc2[nH]1
IONMODE=positive
INSTRUMENTTYPE=LC-ESI-Orbitrap
INSTRUMENT=Orbitrap
COMMENT=DB#=CCMSLIB00010115405; origin=GNPS
NUM_PEAKS=42
COMPOUND_NAME=3-(benzimidazol-2-ylthiomethyl)-4-methoxybenzaldehyde
PRECURSOR_MZ=299.085
COLLISION_ENERGY=205060
PARENT_MASS=298.0777235480092
51.02372 0.0007197193733626278
53.03907 0.005356987627133378
53.608879 0.0005714290584246796
55.018299 0.0009293711979300718
58.950829 0.0007623315328275554
65.038986 0.03495709807785071
65.04277 0.0014213285789526613
67.05468 0.014086514615118454
67.058327 0.0011954841337885448
73.947487 0.0007497609457854017
77.039169 0.0028198596525915863
78.0467 0.001094706376653991
81.033798 0.0015926294600016704
84.960114 0.0006973479896435408
91.05439 0.7982537963172868
93.07 0.18124016724420347
95.04908 0.008674770363072643
97.075539 0.0008200710089025324
103.053841 0.0011778000876105999
105.033279 0.00087738436338286
105.045029 0.0013373826248067539
106.041489 0.010789185715722353
107.049004 0.0027011847884817627
109.045052 0.0008701402962738224
109.06485 0.021713451976948527
118.648613 0.0009406634201882775
119.049187 0.28303188071322527
121.064774 0.06364552137681592
124.051849 0.011220207708710095
134.036377 0.015487176296730625
135.044037 0.0033687042664998544
137.059723 0.07378508472149545
147.055176 0.04090170738400544
149.059692 1.0
152.046677 0.03150082582365043
152.060593 0.0011790784523945477
163.033051 0.0029781638250037925
169.616592 0.0006568664381518595
180.113922 0.000726111197282367
241.539642 0.0006739113019378306
272.146759 0.0013471834214836872
299.084534 0.208401583808743
END IONS

BEGIN IONS
CHARGE=1+
PRECURSORTYPE=M+H
FORMULA=C21H21NO5
ONTOLOGY=
INCHIKEY=JEVRLDVQDNFCRK-UHFFFAOYSA-N
INCHI=InChI=1S/C21H21NO5/c1-25-15-4-2-14(3-5-15)20-12-18(24)21-16(13-22-8-10-26-11-9-22)17(23)6-7-19(21)27-20/h2-7,12,23H,8-11,13H2,1H3
SMILES=COc1ccc(-c2cc(=O)c3c(CN4CCOCC4)c(O)ccc3o2)cc1
IONMODE=positive
INSTRUMENTTYPE=LC-ESI-Orbitrap
INSTRUMENT=Orbitrap
COMMENT=DB#=CCMSLIB00010125820; origin=GNPS
NUM_PEAKS=36
COMPOUND_NAME=6-hydroxy-2-(4-methoxyphenyl)-5-(morpholin-4-ylmethyl)chromen-4-one
PRECURSOR_MZ=368.149
COLLISION_ENERGY=205060
PARENT_MASS=367.1417235480092
65.038933 0.011644528790347617
70.065521 0.02615064045785326
70.069504 0.002063093385998853
70.230247 0.001191814627660974
73.947762 0.0013943968049896604
77.001419 0.0012282092612503268
82.39299 0.0016640678851999248
86.060257 0.0011655052539819237
88.075897 0.1918269053686908
92.371368 0.001397466231918883
93.033653 0.008334809581523103
101.858719 0.001398343211041518
104.27861 0.001408866960513138
111.271049 0.0012124236370428965
115.865097 0.001209354210113674
121.018372 0.0027909860577859085
121.028374 0.08242507528865768
129.250351 0.0012273322821276917
135.043991 0.010885503359707019
135.054459 0.0013527402966644975
149.023285 0.042276532564865764
150.609222 0.0013360776933344326
151.88533 0.0012900362893960946
154.456314 0.0012176855117787067
167.033875 0.13517624649427595
197.097458 0.0018206086585902735
225.091949 0.0016009253883702045
231.606201 0.0014895490397955587
235.07489 0.0027195122592911553
238.062164 0.10148972443562009
253.085815 0.028057631560023083
266.057007 0.13498638051422548
279.064087 0.008982020174027737
281.080444 1.0
283.094818 0.0021700848389603236
368.148651 0.714316157989543
END IONS

BEGIN IONS
CHARGE=1+
PRECURSORTYPE=M+H
FORMULA=C10H12O4
ONTOLOGY=
INCHIKEY=FBUBVLUPUDBFME-UHFFFAOYSA-N
INCHI=InChI=1S/C10H12O4/c1-6(11)10-8(12)4-7(13-2)5-9(10)14-3/h4-5,12H,1-3H3
SMILES=COc1cc(O)c(C(C)=O)c(OC)c1
IONMODE=positive
INSTRUMENTTYPE=LC-ESI-Orbitrap
INSTRUMENT=Orbitrap
COMMENT=DB#=CCMSLIB00010115930; origin=GNPS
NUM_PEAKS=73
COMPOUND_NAME=Xanthoxylin
PRECURSOR_MZ=197.081
COLLISION_ENERGY=205060
PARENT_MASS=196.07372354800924
51.023529 0.0017917121684169685
53.039101 0.016479219994983047
53.32346 0.0012649718482145094
55.018459 0.005058694773265126
56.96524 0.0024257882519814382
57.0341 0.0023466778189849932
57.070549 0.0011977876111471768
65.039108 0.009863361573240161
66.046913 0.004868670718127937
67.054543 0.01494789643768503
68.997414 0.018312276309287605
69.033684 0.001497135128967895
78.046783 0.0018481628291481
79.054497 0.04164110816622414
79.059387 0.0018235153575612679
81.03373 0.1048157581621891
81.070259 0.010704158386242576
83.1203 0.001078525651856054
90.046387 0.0014108689784139829
91.054337 0.21352343159591186
92.062241 0.0016064585916514243
93.069946 0.06762908417548841
94.041344 0.0051215060718251175
95.049179 0.02811322412383208
95.085587 0.006864718376797029
96.056908 0.0023009607345900627
102.046127 0.0013587912561901926
103.054199 0.055618609795143735
105.033386 0.008170239291170521
105.044807 0.0014474426459299273
105.069763 0.01605027448139931
107.04921 0.004269578142622197
108.020477 0.009723427541005244
108.056953 0.054573875031753497
109.064812 0.04002987909620107
111.043953 0.0028837541756593496
111.080528 0.009524260068989068
118.04126 0.040400386249732155
119.04908 0.10956914231966897
120.056938 0.006019548625287272
121.06469 0.0646105639858301
123.04425 0.009973082575787993
123.08033 0.1714342960026174
124.052567 0.0015762455619643399
125.059799 0.006822579151180832
133.064728 0.16282398008166263
135.043945 0.005327431721534456
135.055069 0.0016458150382174948
136.043121 0.0010729600937558015
136.051849 0.06421978229921951
137.059616 0.06453900681025541
139.075394 0.004958514727460583
140.046326 0.010989592008812664
141.05455 0.016289195939845857
147.043884 0.019677825743170962
148.051773 0.008190513824250012
149.023499 0.00788758844765056
149.06015 0.00803944867581459
149.071381 0.001348852759582599
151.075363 0.6822153783526027
153.056366 0.0011862589550823684
155.07016 0.1808345236339437
161.060135 0.008448119656318837
163.038956 0.001464536860094988
163.468552 0.0012788857434651404
164.0466 0.06158210529956418
166.907333 0.0011548533058023725
167.033981 0.023101836594419098
167.069824 0.008665573962092984
177.055069 0.011720270279402943
179.07019 0.8003002221055222
182.05751 0.002415054675645237
197.08075 1.0
END IONS

BEGIN IONS
CHARGE=1+
PRECURSORTYPE=M+H
FORMULA=C15H14N2
ONTOLOGY=
INCHIKEY=UUEYCHLWAOBOHG-UHFFFAOYSA-N
INCHI=InChI=1S/C15H14N2/c1-2-4-15-14(3-1)13(11-17-15)6-5-12-7-9-16-10-8-12/h1-4,7-11,17H,5-6H2
SMILES=c1ccc2c(CCc3ccncc3)c[nH]c2c1
IONMODE=positive
INSTRUMENTTYPE=LC-ESI-Orbitrap
INSTRUMENT=Orbitrap
COMMENT=DB#=CCMSLIB00010114884; origin=GNPS
NUM_PEAKS=33
COMPOUND_NAME=3-(2-(4-pyridyl)ethyl)indole
PRECURSOR_MZ=223.123
COLLISION_ENERGY=205060
PARENT_MASS=222.11572354800924
53.66814 0.0009162551065528191
73.04673 0.0008912133159207128
77.039337 0.0011220780432550624
92.386467 0.0014596276594467412
94.065308 0.5078608925100004
103.054329 0.0009399247442735771
103.365189 0.0008435310022513599
113.187134 0.0009903513637656268
118.47654 0.0009546753880705712
130.065186 1.0
136.22403 0.0009766298346521437
164.086594 0.007877872902278357
174.98526 0.0010562147035103446
176.086945 0.09390156929698089
176.980591 0.015208942869384422
178.066238 0.01649190584149507
178.102478 0.0066093175357368646
179.073166 0.0011069843612302312
180.082138 0.007895710890125885
194.097946 0.015125241541792176
194.990631 0.001668537940199518
199.379211 0.0008143727528852088
199.99678 0.009825986998165089
205.11348 0.005906089168670868
206.097382 0.011179615845210175
223.122864 0.225932523694508
225.042816 0.019721267718353266
227.02121 0.004878003599843163
236.353897 0.00104969697718144
260.027466 0.0008891550865536904
266.994965 0.000925174100476583
269.529266 0.0009927526313604862
339.416718 0.0009807462933861886
END IONS

BEGIN IONS
CHARGE=1+
PRECURSORTYPE=M+H
FORMULA=C16H15ClO4S
ONTOLOGY=
INCHIKEY=PGZZJKIGLNOHBC-UHFFFAOYSA-N
INCHI=InChI=1S/C16H15ClO4S/c1-19-13-8-10(9-14(20-2)15(13)21-3)16(18)22-12-6-4-11(17)5-7-12/h4-9H,1-3H3
SMILES=COc1cc(C(=O)Sc2ccc(Cl)cc2)cc(OC)c1OC
IONMODE=positive
INSTRUMENTTYPE=LC-ESI-Orbitrap
INSTRUMENT=Orbitrap
COMMENT=DB#=CCMSLIB00010125486; origin=GNPS
NUM_PEAKS=49
COMPOUND_NAME="4-chlorophenylthio 3,4,5-trimethoxyphenyl ketone "
PRECURSOR_MZ=339.045
COLLISION_ENERGY=205060
PARENT_MASS=338.03772354800924
53.039101 0.01810142551650279
56.583111 0.002259753853192249
65.038948 0.009328416404703893
79.054527 0.04762725845414814
81.03373 0.025095571644941375
81.070183 0.02337736156408239
82.944771 0.0030161821943873535
91.05468 0.0020751957355810723
92.387749 0.0025976771671282063
93.03347 0.004151257941197878
94.041573 0.005163294942934283
95.049057 0.010873332478416231
96.057114 0.02344927857704825
98.999641 0.00992454778928835
101.646744 0.0024633743115895566
106.279503 0.0021809050799405255
107.049057 0.0034095595906102373
108.002777 0.09414023644234334
108.05687 0.011816918347329713
109.028427 0.005252541356614806
109.064682 0.03829191028915838
111.043953 0.005036790317717233
111.080406 0.012138378730586739
113.023354 0.0027631729439532523
113.060066 0.005171959643291616
121.028976 0.002928668720778298
122.036163 0.032353991134278594
123.044228 0.0033705684390022425
124.051857 0.058041361813625764
128.046692 0.013914642303839849
137.023529 0.012819424178673053
139.075317 0.08250354386244615
140.870224 0.0022970120647287776
141.018341 0.009306754653810562
142.97171 1.0
143.070541 0.0029026746197063015
151.039093 0.014184114484952881
152.046692 0.12030069976120086
153.054672 0.026793852914978496
156.04187 0.020563066888020877
160.981628 0.002708585331702059
168.078079 0.07676144693564207
170.966583 0.11558277041663345
183.997971 0.016535714161932853
184.036072 0.008623109795617048
195.06517 0.7302271537845678
199.042725 0.017350195995522084
311.049957 0.014714394146821614
339.045197 0.06246469134604387
END IONS

BEGIN IONS
CHARGE=1+
PRECURSORTYPE=M+H
FORMULA=C14H12FN5O2S
ONTOLOGY=
INCHIKEY=CIULIPSVONXXPV-UHFFFAOYSA-N
INCHI=InChI=1S/C14H12FN5O2S/c1-20-12-11(13(22)17-7-16-12)19-14(20)23-6-10(21)18-9-5-3-2-4-8(9)15/h2-5,7H,6H2,1H3,(H,18,21)(H,16,17,22)
SMILES=Cn1c(SCC(O)=Nc2ccccc2F)nc2c(O)ncnc21
IONMODE=positive
INSTRUMENTTYPE=LC-ESI-Orbitrap
INSTRUMENT=Orbitrap
COMMENT=DB#=CCMSLIB00010121462; origin=GNPS
NUM_PEAKS=62
COMPOUND_NAME=N-(2-fluorophenyl)-2-(9-methyl-6-oxohydropurin-8-ylthio)acetamide
PRECURSOR_MZ=334.077
COLLISION_ENERGY=205060
PARENT_MASS=333.0697235480092
53.039101 0.0016821042000898115
57.045219 0.001886835519929045
58.995522 0.0026263371587112593
72.815964 0.0007530106450969761
77.223183 0.0006447056806769037
83.024063 0.0009488912366610209
84.985672 0.0065500047514436
86.005783 0.0010998194451431861
97.044647 0.001350900631476171
104.049294 0.0009644964680935904
106.039963 0.003000163971386993
107.023918 0.0017435934702121753
108.055382 0.004207822553146294
109.044617 0.0074101557914507555
110.034447 0.0017466213509378977
111.001152 0.0008685359404783865
111.047691 0.005130161604981749
111.337578 0.0007346104468406627
118.665932 0.000842915411260735
122.039902 0.0036444038242599394
123.000221 0.0008918273306762516
124.055847 0.07783889438565697
125.016968 0.0010695406378859616
126.012177 0.0031706569476353647
132.043991 0.0010131754736071282
133.051178 0.0026356537147904056
134.034683 0.0031548188023008167
135.047546 0.004025218053995032
137.034805 0.0014512865232289692
137.045715 0.0305452607610881
139.99118 0.014570162052176441
140.027771 0.001836293203199678
149.04567 0.0372501532573475
150.011856 0.0007954009752570904
150.034531 0.006866068916428629
150.053482 0.052098880336290405
150.995865 0.010306673076457249
151.061325 0.11372161012448782
152.027313 0.004036630835191986
153.023438 0.0052286841855187175
154.007095 0.0036975081939110716
161.046036 0.008640872849505944
162.053452 0.026308556884096453
163.061203 0.04084727555950578
168.022369 0.02788794605341368
170.038391 0.004066210900743275
177.02269 0.004699503800223224
179.056259 0.0018057814820404748
181.017654 0.33960593762752034
182.025421 0.009036593568967669
183.033218 0.004996236111344025
186.032516 0.004089735204843119
195.033371 0.8489064226474299
208.005585 0.000837558391515226
213.043777 0.009396911375328642
219.157608 0.0008179936237490194
222.044083 0.0034273280676158373
223.028137 1.0
236.05983 0.007428788903609047
316.066315 0.001812303071295877
334.076202 0.03717142835847872
334.119995 0.0016455367174791635
END IONS

BEGIN IONS
CHARGE=1+
PRECURSORTYPE=M+H
FORMULA=C18H16O5
ONTOLOGY=
INCHIKEY=GGMKKMHAXFYCRV-UHFFFAOYSA-N
INCHI=InChI=1S/C18H16O5/c1-20-15-7-4-12(9-17(15)21-2)3-6-14(19)13-5-8-16-18(10-13)23-11-22-16/h3-10H,11H2,1-2H3/b6-3+
SMILES=COc1ccc(C=CC(=O)c2ccc3c(c2)OCO3)cc1OC
IONMODE=positive
INSTRUMENTTYPE=LC-ESI-Orbitrap
INSTRUMENT=Orbitrap
COMMENT=DB#=CCMSLIB00010120010; origin=GNPS
NUM_PEAKS=129
COMPOUND_NAME="(2E)-1-(2H-benzo[3,4-d]1,3-dioxolan-5-yl)-3-(3,4-dimethoxyphenyl)prop-2-en-1-o ne "
PRECURSOR_MZ=313.107
COLLISION_ENERGY=205060
PARENT_MASS=312.09972354800925
50.015739 0.0007284976777813711
51.023529 0.0007028175349659132
53.002789 0.0030378762352571993
55.018318 0.005923788108908639
57.034069 0.0006696591088030965
61.762009 0.00048256092543333125
65.038986 0.02379406331537981
66.046783 0.0010588120422373444
67.018318 0.002262392362104688
68.997513 0.018999919290979723
69.034019 0.0012658052813047996
71.013008 0.0008739714538403666
71.049004 0.0005343445101216449
76.579422 0.0005718770265442373
77.038857 0.0008625423792906298
78.046654 0.0008677630676652009
78.737587 0.0004966708940132532
79.054558 0.02410645801973928
81.03363 0.0008381321336473648
84.960037 0.0009177123564381247
89.038567 0.006817231319389298
90.046272 0.000552405269903945
91.054367 0.027229699564905008
92.062119 0.005946081859264916
93.033386 0.0006043299542780579
95.012909 0.017332262104518745
95.049088 0.0021576963952416673
102.046516 0.004031218023283706
103.054207 0.04181333979005496
104.278938 0.0005905021850697343
105.033524 0.011571444132708206
105.069923 0.04917916668783162
107.049316 0.004266290099825206
109.028343 0.0027354996085894715
115.054153 0.005052497549098458
117.033623 0.00834661081376704
117.069199 0.0008423651242213414
118.041367 0.01457009465531322
119.049133 0.04609783174934826
120.056931 0.03065277794239408
121.028648 0.0012119052013294977
121.06469 0.003122959345794129
122.036163 0.0023890998799523874
123.044113 0.0027219540387527466
124.051613 0.004561752841888772
125.02346 0.0057934119992301605
130.041336 0.004458608971569542
131.049332 0.006049366829269945
132.056931 0.07133957784102807
133.028336 0.03509403165261032
133.064835 0.03830221520862717
134.03566 0.0006034833561632625
135.043991 0.05979113295710513
135.080322 0.01042077619501557
137.023392 0.0011745137845927045
137.059662 0.0011213192030463987
138.06813 0.004030089225797312
139.038986 0.0029069357268355234
139.075638 0.008623025098247711
145.028564 0.00723629738621298
146.036224 0.012625458785628376
147.043961 0.03729744434605093
148.051834 0.21728758994399472
149.0233 0.4185355320050773
151.038773 0.0010442787746000248
151.07515 0.0021013976206077783
152.047318 0.001041880079941438
152.062347 0.0006851800742410107
157.963989 0.0005667974378554654
158.035965 0.0008264208597260295
159.044128 0.0029889146442848703
160.051773 0.07233362512748356
161.02298 0.0009129149671209512
161.059601 0.012010828554286975
163.075302 0.5545069497239243
165.054642 0.002491256052471022
165.069916 0.0011474226449192542
166.077484 0.0007443008425908837
169.064651 0.0008286784546988171
174.03006 0.0006741742987486716
175.025589 0.0009922129905401127
175.03894 0.0646617530112084
176.046753 0.08030589847482528
181.064835 0.003521989257234322
183.079437 0.0010445609739716231
191.07016 0.8337864044244346
191.760468 0.0007131178120292562
193.064621 0.0006355129848396854
194.072357 0.0013813659239743604
195.080261 0.0037741343957575276
196.087967 0.006138541830695052
197.05954 0.003623439931323961
198.066193 0.0006208386175165665
205.625427 0.0007634903998595775
208.104752 0.0008326292459011952
208.123886 0.0009618765580932804
209.060318 0.00359648989133631
211.075348 0.0013757219365423917
212.083054 0.002322077529197758
221.059174 0.0010012433704312627
222.067505 0.003095303807377482
223.075531 0.002447232950501666
224.082962 0.005616755192609537
225.054352 0.0013627407654488635
227.070068 0.0007938268323064099
227.107132 0.0023443712795540345
237.054886 0.0009377485118216139
238.063263 0.0008566161924870626
239.070496 0.003348577743387081
240.078049 0.0023841613909494144
241.08577 0.0006451077634740323
251.070694 0.005885832293428649
252.077744 0.005620141585068719
254.094452 0.0007032408340233108
255.070694 0.0007208782947482132
255.101364 0.006346240568191503
266.056183 0.0007911459382762247
267.065887 0.0022870848071195513
271.096954 0.005677569157189001
279.06427 0.0006819347814676286
280.073151 0.002434392879093937
281.081543 0.0026172580718897254
282.087463 0.002860231730835982
283.095612 0.008016155349625267
285.110657 0.0050159527304764594
295.096893 0.002253361982213538
297.074554 0.0020184310053578372
298.08252 0.0012148682947312813
313.106476 1.0
END IONS

BEGIN IONS
CHARGE=1+
PRECURSORTYPE=M+H
FORMULA=C14H19NO5
ONTOLOGY=
INCHIKEY=XWVOEFLBOSSYGM-UHFFFAOYSA-N
INCHI=InChI=1S/C14H19NO5/c1-17-11-8-10(9-12(18-2)13(11)19-3)14(16)15-4-6-20-7-5-15/h8-9H,4-7H2,1-3H3
SMILES=COc1cc(C(=O)N2CCOCC2)cc(OC)c1OC
IONMODE=positive
INSTRUMENTTYPE=LC-ESI-Orbitrap
INSTRUMENT=Orbitrap
COMMENT=DB#=CCMSLIB00010117022; origin=GNPS
NUM_PEAKS=77
COMPOUND_NAME=TRIMETOZINE
PRECURSOR_MZ=282.134
COLLISION_ENERGY=205060
PARENT_MASS=281.12672354800924
53.03904 0.004725332248621326
54.76992 0.000621403279475604
55.018349 0.0008545857978301314
55.92659 0.0006132762748144542
60.044899 0.0067314520915159074
65.03907 0.009379396917906417
66.046722 0.0011588275107859939
67.018242 0.0007770666764468568
67.054703 0.003305190280269133
68.02597 0.0010456745997346013
68.997437 0.0007147596407113755
69.033852 0.003638605856111174
70.029137 0.4178622393523736
71.049538 0.0007637300534131753
72.044701 0.002628773430779592
75.044411 0.004166236004881204
77.039223 0.0009769076372171802
78.04657 0.0011892516820815801
79.054543 0.061117575668664936
81.033768 0.03248551309322966
81.037819 0.0008591702619979595
81.070107 0.027637233851016584
82.041199 0.0008162430066082967
83.049492 0.0028942555830438173
85.028572 0.0016424884804918547
88.039291 0.0012861505838106732
91.054413 0.0027438018044450966
92.025917 0.00130032074578396
92.360733 0.0007251788774564393
93.033722 0.004100178043917499
94.041428 0.008719234077739176
95.049217 0.009155591712622447
96.056976 0.022078154278055255
97.028236 0.0010577609143588751
98.035797 0.0008302047838466822
99.044312 0.0009641961683882024
105.033142 0.0008606289551422684
105.045258 0.0008510432573368097
106.041527 0.0010792245420537065
107.012207 0.0008543774130952301
107.049004 0.005038117735708141
108.056976 0.008646091035788828
109.028427 0.006420750451778106
109.064796 0.04050353253802605
111.044296 0.001511831251708755
111.055389 0.0011409064235844842
111.080513 0.012742101385008302
113.023323 0.010200641158152344
113.059692 0.008943872821962752
114.054993 0.2365573091362536
121.028526 0.005344860065482819
122.036201 0.03251447857138094
123.044098 0.001331995225488954
124.051872 0.05858549275487954
125.059143 0.001038797903482859
127.038689 0.0008927202043170648
128.046722 0.01701544714362876
135.04393 0.0015439225008835513
136.187683 0.0008454168694944753
137.023422 0.011514090142235084
139.075333 0.10617681528110268
141.018265 0.019561283449917647
143.070084 0.005903539539753139
151.038651 0.009879311896934577
152.046722 0.13987554430092755
155.03421 0.0009212689129985397
156.041687 0.03487818661936611
165.053879 0.0007539359708728153
167.034958 0.0007931123010342551
167.06958 0.003263721718023779
170.057434 0.0034952371584990967
171.063904 0.0011602862039303027
180.042328 0.0015810149836959784
184.036942 0.008822176136780406
185.081268 0.009083282209611705
195.065155 1.0
282.133301 0.6016509072237819
END IONS

BEGIN IONS
CHARGE=1+
PRECURSORTYPE=M+H
FORMULA=C26H22N2O4
ONTOLOGY=
INCHIKEY=LVKMUWHJXWDZBZ-UHFFFAOYSA-N
INCHI=InChI=1S/C26H22N2O4/c29-23(22-16-20-8-4-5-9-24(20)32-26(22)31)14-15-27-21-12-10-19(11-13-21)25(30)28-17-18-6-2-1-3-7-18/h1-13,16,27H,14-15,17H2,(H,28,30)
SMILES=O=C(NCc1ccccc1)c1ccc(NCCC(=O)c2cc3ccccc3oc2=O)cc1
IONMODE=positive
INSTRUMENTTYPE=LC-ESI-Orbitrap
INSTRUMENT=Orbitrap
COMMENT=DB#=CCMSLIB00010117793; origin=GNPS
NUM_PEAKS=34
COMPOUND_NAME=(4-{[3-oxo-3-(2-oxochromen-3-yl)propyl]amino}phenyl)-N-benzylcarboxamide
PRECURSOR_MZ=427.165
COLLISION_ENERGY=205060
PARENT_MASS=426.15772354800924
52.753922 0.0018311324688243512
60.549412 0.0016294604469200475
62.318008 0.0015781145026928782
65.039101 0.021101945825698458
79.054512 0.004277179016706609
85.397209 0.0016981279145009606
91.054329 0.641543446710952
96.044594 0.0019202145889293195
104.049553 0.0035125574858056305
106.065018 0.08773227853504453
106.073174 0.0031172555778398326
111.406517 0.0016975092886668984
118.065353 0.002359438931113539
120.044258 0.01194257172657233
131.06012 0.01009535498606236
132.044312 0.1462790274706988
133.052856 0.0018540216246846555
134.060074 0.0032886149338750845
137.046967 0.028613300702882673
149.070755 0.004180054760758831
158.002182 0.001844123611339659
161.07074 0.009881310447476812
171.043839 0.029582068759024204
189.054367 0.03910024584190645
191.033478 0.03764709375769416
201.054352 0.03198233699518585
209.393021 0.00201795747071116
227.116837 0.0024491396770525697
237.100204 0.012809885145927648
239.117447 1.0
302.081421 0.01816409173973669
320.091888 0.02143538515025803
409.154694 0.016701041642179393
427.163849 0.009299802163458267
END IONS

BEGIN IONS
CHARGE=1+
PRECURSORTYPE=M+H
FORMULA=C16H12N2O2
ONTOLOGY=
INCHIKEY=CTILPMYYGZYYLB-UHFFFAOYSA-N
INCHI=InChI=1S/C16H12N2O2/c17-9-13-15(10-4-2-1-3-5-10)12-7-6-11(19)8-14(12)20-16(13)18/h1-8,15,19H,18H2
SMILES=N#CC1=C(N)Oc2cc(O)ccc2C1c1ccccc1
IONMODE=positive
INSTRUMENTTYPE=LC-ESI-Orbitrap
INSTRUMENT=Orbitrap
COMMENT=DB#=CCMSLIB00010122210; origin=GNPS
NUM_PEAKS=90
COMPOUND_NAME=2-amino-7-hydroxy-4-phenyl-4H-chromene-3-carbonitrile
PRECURSOR_MZ=265.097
COLLISION_ENERGY=205060
PARENT_MASS=264.0897235480092
55.01836 0.0004817355270373471
65.038933 0.004331345389333492
66.742264 0.000584003404285499
67.029358 0.002849094406865309
68.997398 0.019545354378774887
71.013077 0.0010472167306447753
79.324417 0.00045418969013149814
79.957787 0.0004586223535416347
81.033348 0.00047128710614202505
83.049431 0.0005860614265830624
85.437737 0.0004616302322842274
89.038467 0.004172561053606099
91.054138 0.008893347585401593
93.033493 0.0012629924530739255
103.05365 0.0009555555836994502
104.049263 0.02188358432762195
105.033463 0.0005977763227384235
106.064636 0.0007978794138245906
111.043839 0.045979067696902076
114.033302 0.0006327627017970017
115.053818 0.0023103674931262055
116.049339 0.011177910645104504
117.044098 0.0019380237666747299
119.060333 0.0029453465266282754
128.050446 0.000970278358597404
128.061768 0.004318838946140607
129.069794 0.008432667209562395
130.065247 0.0006384618404671774
131.048752 0.00375794871535082
131.060211 0.00724170553690319
131.085297 0.016156899820540457
132.04422 0.008288289029917946
134.059097 0.0004757197695521617
136.038589 0.002161556650071619
141.069519 0.0006397283157272164
143.085083 0.005221202568918418
144.044037 0.022638086963790206
145.039902 0.0037009573286490636
145.050568 0.0005145055743908571
149.047104 0.002444613870690343
149.866608 0.0006541344718101604
152.061829 0.0071931045487991915
153.069534 0.03693516786496334
155.060104 0.02873711519732318
156.080902 0.0021897357246074877
157.064728 0.0051292248031580825
159.055084 0.010726412214900588
160.039398 0.0029230249001700875
162.054367 0.010694433714584603
162.998764 0.0005202047130610327
165.069626 0.005128749874935568
166.077454 0.0006338708676495359
167.085175 0.01625790122252857
168.080902 0.0009303843879061744
169.039215 0.003101597911835591
169.06424 0.0007867977552992491
171.043823 0.0007212576605922291
171.080368 0.009527060143643623
177.070374 0.0039525109771743165
180.080704 0.000805161646569815
181.064407 0.022614973790294493
182.073242 0.001990740799373855
184.05191 0.003997312539498197
185.059219 0.0011137066817968244
187.049789 1.0
187.713272 0.0006542927812176653
188.053711 0.000966320623409782
191.071289 0.0007616265595059733
192.080231 0.0020224026808748304
194.072266 0.004129817513579781
194.094025 0.0004746116036996275
195.079041 0.007194845952281745
196.075241 0.0012686915917441012
197.059662 0.006854164107331246
199.074966 0.21738984514806994
206.059387 0.0006340291770570408
209.069641 0.000776349334403927
209.652298 0.0009470068756941868
209.672897 0.0006351373429095749
220.07637 0.005672700999122333
221.059402 0.002701550039070762
224.069839 0.0020567558223033894
225.07724 0.011979272865894201
238.085953 0.005588005466107222
248.069839 0.02111388398833323
248.098145 0.0009338671948712818
249.075317 0.001237346329058135
263.081329 0.002242927685529127
264.088531 0.0011176644169844465
265.096405 0.45018367057458714
END IONS

BEGIN IONS
CHARGE=1+
PRECURSORTYPE=M+H
FORMULA=C15H10O5
ONTOLOGY=
INCHIKEY=BYVNWEGWXASECK-UHFFFAOYSA-N
INCHI=InChI=1S/C15H10O5/c16-9-2-4-14-10(6-9)12(18)7-15(20-14)8-1-3-11(17)13(19)5-8/h1-7,16-17,19H
SMILES=O=c1cc(-c2ccc(O)c(O)c2)oc2ccc(O)cc12
IONMODE=positive
INSTRUMENTTYPE=LC-ESI-Orbitrap
INSTRUMENT=Orbitrap
COMMENT=DB#=CCMSLIB00010119543; origin=GNPS
NUM_PEAKS=96
COMPOUND_NAME="6,3',4'-Trihydroxyflavone "
PRECURSOR_MZ=271.06
COLLISION_ENERGY=205060
PARENT_MASS=270.0527235480092
55.018421 0.0061807781059028425
59.7635 0.0002660799633642282
65.03907 0.01615078226604195
66.735703 0.0002997924757292537
68.997566 0.006142992941037343
69.03392 0.0004643578045446578
71.013313 0.0016111111613907715
73.439888 0.0002483563830380962
78.644493 0.00025423910331655704
79.054337 0.0019335294843448746
81.028793 0.0005808809177526319
81.033867 0.009509643588604176
82.388832 0.00036570911064431476
84.298203 0.00034572294559569785
84.960091 0.0015938400980091366
89.038719 0.00464184339715934
91.054466 0.0003556783183746315
94.041496 0.0011097223868881104
95.012848 0.0012193823264378802
95.049408 0.00030424222568347406
96.020813 0.0015367475435117668
103.054077 0.00031789315350913317
104.272667 0.0004108099661125144
105.033493 0.002208433528126794
107.049393 0.0022627355614664325
109.028549 0.023598381558064107
111.035843 0.0005222045539495226
111.044144 0.010704363741566969
115.054314 0.002175098113215516
117.0336 0.00653555139038848
117.070511 0.00031397133999015926
121.028572 0.0037689382112246527
121.039833 0.003467788184661908
123.044571 0.0003769466147659899
127.039093 0.0029427176900639045
128.061615 0.0009768332441874952
129.070114 0.001140116441660158
131.049423 0.00037310022073776554
131.085648 0.0010727668364208564
133.028671 0.00302145563840638
134.036316 0.0042372178292882845
135.044144 0.05964542883974957
137.023468 0.08764642317031561
139.055435 0.000357714644624868
141.070007 0.02108110521531812
144.057175 0.00040311717805606564
145.064972 0.001783897214697871
147.043854 0.0018203248287298785
149.023361 0.0006643702940123259
150.031464 0.000408773639862278
152.062057 0.0049559655761309985
153.069901 0.007169829307591756
155.033936 0.004622913104981216
155.048981 0.001219684004400878
157.064484 0.0022517997353077553
159.080475 0.0015595996492088647
160.053467 0.00034444081425295635
161.023407 0.0411245136574139
162.032333 0.00043984647005107107
163.038498 0.00035741296666187
168.056839 0.000627565582526571
169.064926 0.0399238353646819
171.043427 0.0004453520928757844
173.059616 0.003528727133187502
179.049179 0.00160085411064884
180.545532 0.00028953542498732197
181.06485 0.017134026166943154
183.044037 0.0011524098186523261
184.051331 0.0003547732844856376
185.06012 0.0015804908481464755
187.075836 0.005726224835155619
189.05455 0.0018544144385486514
196.049301 0.00031706353911088866
197.059753 0.04346742013754705
198.068924 0.0006185152436366313
200.047089 0.001458311273132289
201.054535 0.0018548669554931485
207.045197 0.002066267788063991
209.059891 0.0014666074171147338
210.951569 0.00033207201777003874
211.036514 0.00031781773401838364
213.598526 0.0003098232679989369
215.07019 0.02195242659194707
216.042038 0.0006433282560932161
225.029419 0.0005736406466406802
225.05455 0.015252008194780188
226.061859 0.0016529689787567429
228.041489 0.0004970898635299399
229.04924 0.0006325432689160379
235.039139 0.0012493238642654308
242.0569 0.0010762361329953334
243.064606 0.007258748887185414
253.04924 0.01315217873333267
254.056747 0.0003840360468964427
270.050415 0.0006652753279013199
271.059998 1.0
END IONS

BEGIN IONS
CHARGE=1+
PRECURSORTYPE=M+H
FORMULA=C29H34N2O4
ONTOLOGY=
INCHIKEY=LIEPOPJIKJBLKK-UHFFFAOYSA-N
INCHI=InChI=1S/C29H34N2O4/c1-2-35-26-18-21(13-14-25(26)32)28-23-11-5-6-15-29(23,34)16-17-31(28)19-27(33)30-24-12-7-9-20-8-3-4-10-22(20)24/h3-4,7-10,12-14,18,23,28,32,34H,2,5-6,11,15-17,19H2,1H3,(H,30,33)
SMILES=CCOc1cc(C2C3CCCCC3(O)CCN2CC(O)=Nc2cccc3ccccc23)ccc1O
IONMODE=positive
INSTRUMENTTYPE=LC-ESI-Orbitrap
INSTRUMENT=Orbitrap
COMMENT=DB#=CCMSLIB00010118575; origin=GNPS
NUM_PEAKS=118
COMPOUND_NAME=2-[2-(3-ethoxy-4-hydroxyphenyl)-6-hydroxy-3-azabicyclo[4.4.0]dec-3-yl]-N-napht hylacetamide
PRECURSOR_MZ=475.259
COLLISION_ENERGY=205060
PARENT_MASS=474.25172354800924
55.054909 0.0013382236826388447
56.04998 0.18124171394723512
60.044991 0.0008763588718165886
65.038948 0.0016052967032204146
67.054642 0.06202015421220912
68.049927 0.0011434318923981585
69.070137 0.0015552715579279953
69.169891 0.0007452725727237998
74.916443 0.000693001400499884
79.054466 0.011056782215223692
80.049637 0.000891060139004565
81.070107 0.012637985174997146
83.085762 0.001205708093680558
84.044632 0.015574359111528917
91.054428 0.013081677586100932
93.070061 0.0036434640514201324
95.049217 0.0018809454629949707
95.085587 0.003153625996087421
96.080627 0.0012494035267114879
103.054092 0.0036189619394401715
104.049507 0.007850680862645856
105.070107 0.001186514772629589
107.049103 0.00122939346859452
107.085258 0.006072235901433721
108.080566 0.0011848812984975917
109.101303 0.01880884207715021
110.059883 0.0066600824046862735
111.044113 0.0060328283379992844
111.227707 0.0008971856669995551
115.054237 0.0019426091114778715
117.069633 0.002995383189550176
119.085663 0.00976082467575028
121.06443 0.0010785012956512632
123.044022 0.1441259147199909
123.080322 0.0034437718387834537
127.054138 0.0018401086096950364
128.062012 0.003909516150669204
129.069794 0.05819517034787078
131.04921 0.016176498513436447
131.835449 0.0008571655507656195
132.044418 0.007207908791704892
134.096313 0.003151175784889425
135.10408 0.0016979963602112653
136.112122 0.018352694425789944
136.226288 0.0007681412105717629
137.05957 0.00383723492032832
139.074875 0.0008085696953386978
141.069824 0.004560659776536655
143.04924 0.0017300532900517138
143.073013 0.0036724582172630855
143.084351 0.002147201746510542
144.080765 0.2944676068807648
145.06517 0.005067445125988839
147.044174 0.001748429874036684
148.112289 0.0018184650774460713
149.059677 0.012074436599458054
150.054703 0.004448970982761335
151.075333 0.11808425337062282
153.069763 0.0038431562640568106
154.06517 0.001881966384327469
155.085587 0.0031856829259278695
156.080765 1.0
157.064911 0.019456718754753664
157.101364 0.0019360752149498819
161.059753 0.006980855887357257
165.091003 0.001813768839316579
167.072067 0.0059231813868889606
168.08078 0.0033396378628686215
169.064865 0.0013953952772587526
169.101379 0.000924546358710511
170.096329 0.1185998186435345
171.080215 0.0015538422680624975
171.116699 0.01368483790934096
173.059769 0.004356679694303483
175.07486 0.00743251148485453
177.090881 0.01000952111234688
178.049606 0.0009431271269619811
178.086258 0.018868872251501113
181.102585 0.0007783504238967465
182.059723 0.004268063722642626
182.096893 0.0012396026819195035
183.091675 0.0011534369214566424
183.116501 0.0015460832659355101
184.075119 0.010640654680097363
185.0952 0.00835134068410305
189.089905 0.0013459826847658323
192.080597 0.0011352645217381717
195.091476 0.004454483957956826
197.095688 0.001615710100811898
199.112183 0.008892837358860178
201.10231 0.08193710430365304
203.106628 0.007513776822921399
211.111755 0.0017433252673741924
212.143707 0.0010682920823262795
213.102112 0.22566465551970308
215.107788 0.0009629330008124492
227.117676 0.2596705241838908
229.122086 0.001261654582701468
230.1539 0.0010693130036587778
240.13858 0.00488041233787514
243.137222 0.0014235727060357072
244.132446 0.007256096278598814
245.153671 0.017823040438489795
256.134583 0.0010209213324983558
257.154968 0.014194481838524139
258.148224 0.010722328386697231
262.180481 0.0014615509796046461
266.817657 0.0010556326578032998
272.163818 0.0065504354535759505
276.157867 0.0011787557705026017
286.17981 0.01696464978212518
304.189636 0.008112445092298436
307.180054 0.010293133058514923
337.190948 0.0010503238668743084
349.153076 0.007021692740657191
457.247955 0.28932032570657457
475.258484 0.44181861209011797
498.354431 0.000791009848419726
END IONS

BEGIN IONS
CHARGE=1+
PRECURSORTYPE=M+H
FORMULA=C20H21N3O2S
ONTOLOGY=
INCHIKEY=BAZGEONHJRHCHX-UHFFFAOYSA-N
INCHI=InChI=1S/C20H21N3O2S/c1-14(11-12-15-7-3-2-4-8-15)21-18(24)13-26-20-22-17-10-6-5-9-16(17)19(25)23-20/h2-10,14H,11-13H2,1H3,(H,21,24)(H,22,23,25)
SMILES=CC(CCc1ccccc1)N=C(O)CSc1nc(O)c2ccccc2n1
IONMODE=positive
INSTRUMENTTYPE=LC-ESI-Orbitrap
INSTRUMENT=Orbitrap
COMMENT=DB#=CCMSLIB00010121140; origin=GNPS
NUM_PEAKS=46
COMPOUND_NAME=2-(4-hydroxyquinazolin-2-ylthio)-N-(1-methyl-3-phenylpropyl)acetamide
PRECURSOR_MZ=368.143
COLLISION_ENERGY=205060
PARENT_MASS=367.1357235480092
51.02351 0.0008049473005084499
53.039009 0.0007952203224317828
53.693588 0.0005593809687368547
58.02932 0.000666218268923198
58.065449 0.000942879038808729
65.03891 0.0021842646835112415
77.038773 0.0017063670884985979
82.384087 0.0006293833191574588
91.054329 0.28045189945557625
95.04911 0.0008218499181498714
99.57093 0.0005536404570850511
103.054047 0.014092477729206672
104.049133 0.008279412388470629
104.269539 0.000592707828048714
105.033234 0.0054332348197750424
105.069641 0.00511160670861705
117.069656 0.003749829777883658
120.044197 0.0012380370129056269
120.081017 0.0010991485226633806
129.044418 0.002140413552837742
130.029343 0.0009455898359776362
130.065186 0.0011503347515586287
130.076965 0.0007062423918288281
131.048904 0.005905072985821893
132.044327 1.0
133.101089 0.014232322971390885
135.043793 0.0011262564943524528
136.075043 0.0011434780293078633
145.039413 0.0025382629020391256
145.100937 0.007189512467912932
147.054138 0.0020211384774058245
150.054855 0.2358822480736597
150.127609 0.37501423168513676
160.062927 0.003299040154560087
162.001007 0.008274469170103799
177.065277 0.003990452891288423
178.01796 0.0009350655646159964
179.028122 0.002026560071743639
191.027115 0.23866464217955746
193.042313 0.006874422161691716
206.668961 0.0006070591071782227
218.037369 0.0010323353453826672
219.021988 0.7191842158891621
280.838715 0.0006421400117170221
340.959564 0.0005651214803886581
368.141907 0.06811164912461981
END IONS

BEGIN IONS
CHARGE=1+
PRECURSORTYPE=M+H
FORMULA=C15H10O6
ONTOLOGY=
INCHIKEY=IQPNAANSBPBGFQ-UHFFFAOYSA-N
INCHI=InChI=1S/C15H10O6/c16-8-4-11(19)15-12(20)6-13(21-14(15)5-8)7-1-2-9(17)10(18)3-7/h1-6,16-19H
SMILES=O=c1cc(-c2ccc(O)c(O)c2)oc2cc(O)cc(O)c12
IONMODE=positive
INSTRUMENTTYPE=LC-ESI-Orbitrap
INSTRUMENT=Orbitrap
COMMENT=DB#=CCMSLIB00010117936; origin=GNPS
NUM_PEAKS=79
COMPOUND_NAME=luteolin
PRECURSOR_MZ=287.055
COLLISION_ENERGY=205060
PARENT_MASS=286.04772354800923
50.734009 0.00023523598643711903
60.92868 0.00022094525061985132
63.023411 0.00031304941706517366
67.01825 0.022792451678233683
68.993172 0.0005096779706137579
68.997467 0.015087126351503319
69.033943 0.0006155491286317361
79.054413 0.00228397383014615
81.034042 0.0009959370914327263
82.393013 0.0003250207140848744
85.02861 0.00033399918684964993
89.038696 0.007045257937306617
91.018303 0.0003237487637765312
96.557854 0.00023658275735183537
97.028221 0.00036826702456854325
105.033157 0.0003307070801692322
107.049042 0.0038284956075066616
109.028343 0.0014269786047483252
111.007782 0.002168824916937904
111.043953 0.002256589488213585
115.05423 0.0005783632872642907
117.03347 0.009090554033122485
123.609047 0.00026965346536875857
125.023293 0.001343029884397674
127.038879 0.0011157997028424797
128.061905 0.0003158926001073526
129.018021 0.005655016250287498
129.069733 0.001066867026274453
135.044022 0.06393690168766857
137.023315 0.017362196529491065
137.035339 0.000568112864191172
139.054199 0.0014764350255609638
141.070633 0.0003263674849995907
143.034302 0.00035053454085811155
145.064255 0.00037462677611025926
147.043808 0.0011119838519174502
149.022919 0.0004136083120306597
153.018219 0.16191994763754683
155.048569 0.00046605755709822343
157.06456 0.002127823224645429
161.023209 0.019385270905214115
161.058548 0.00034926259054976835
167.048279 0.0011352530604994933
171.028809 0.024919451876209007
171.043915 0.002300658825367358
173.059418 0.0011116097488855846
175.039597 0.00048783035355280414
177.054459 0.0002926982121316825
179.033844 0.009873402037604537
185.025101 0.00029621478063121954
185.060089 0.004097251225598943
189.054199 0.0016753081973007419
195.04393 0.0010288581582369033
199.037827 0.0018351250125137465
201.05394 0.001043074073447798
203.033905 0.004192123754480071
203.069565 0.0005543458726185162
213.054169 0.005651200399362469
216.041519 0.0003816599131093334
217.048508 0.0011706432073139835
218.056625 0.0011511150290505969
219.066269 0.0024789563303545255
221.044586 0.00040238522107469024
227.034409 0.0012855676587031105
231.064545 0.002943966398963525
240.041168 0.00035075900267723096
241.049149 0.01946098935886372
244.034821 0.0006124814837704378
245.045273 0.003133561815513035
258.051971 0.0006346283832568842
259.059631 0.002856800392538829
263.054596 0.0025985196593387863
263.903839 0.0006376960281181825
269.043671 0.015699682655880128
270.051849 0.00045161718006820944
285.802185 0.0005104261766774892
286.046112 0.0012901317156918714
287.054596 1.0
288.317352 0.00036931451305776704
END IONS

BEGIN IONS
CHARGE=1+
PRECURSORTYPE=M+H
FORMULA=C15H10O6
ONTOLOGY=
INCHIKEY=IQPNAANSBPBGFQ-UHFFFAOYSA-N
INCHI=InChI=1S/C15H10O6/c16-8-4-11(19)15-12(20)6-13(21-14(15)5-8)7-1-2-9(17)10(18)3-7/h1-6,16-19H
SMILES=O=c1cc(-c2ccc(O)c(O)c2)oc2cc(O)cc(O)c12
IONMODE=positive
INSTRUMENTTYPE=LC-ESI-Orbitrap
INSTRUMENT=Orbitrap
COMMENT=DB#=CCMSLIB00010117938; origin=GNPS
NUM_PEAKS=80
COMPOUND_NAME=luteolin
PRECURSOR_MZ=287.055
COLLISION_ENERGY=205060
PARENT_MASS=286.04772354800923
64.132118 0.0002689466655816305
65.03907 0.00036802291738650364
65.253403 0.0002521374989827786
67.018173 0.019880174655245327
68.997391 0.014098354969576742
69.033997 0.0003931921985900756
73.941727 0.0003370727058711573
79.017639 0.0003234652852911343
79.054314 0.0032471040874290113
81.033623 0.000642394763722261
84.959763 0.00047697121941609936
85.028587 0.0003788732788947573
87.833679 0.0003105693638264067
89.038589 0.005757984465306191
91.841423 0.0002723262863792833
97.028137 0.0011264809742913134
102.290352 0.00029722875541461944
107.048843 0.003782062484741679
109.028023 0.0013710587951740794
111.007599 0.0025951040856502633
111.043716 0.0018423380216678162
115.053993 0.000627809031858707
117.033279 0.00767102771155648
121.028313 0.00046807748047490786
125.023064 0.0017732336700947583
127.038269 0.000598548630742187
129.018036 0.005545868791558775
129.069656 0.0006562689964705197
135.043854 0.061691242290795915
137.023148 0.01618829468336733
137.03392 0.0005241080358044142
139.054413 0.001708843000160532
141.070587 0.00037042422690062535
143.034744 0.000393814760315959
143.048843 0.000623628974556347
145.039627 0.0003983505671759666
147.043274 0.001421753107138871
151.038177 0.0005507003152385768
153.018021 0.159556433664047
157.064713 0.002368224805260469
157.946716 0.00040341999837244577
161.022964 0.018359789983248644
161.059036 0.0003184847914840671
167.04837 0.0005527458751950509
171.028564 0.020090422643815095
171.04361 0.0023078363178497784
173.058517 0.0006754794725834933
175.038422 0.00047448097251256576
179.033722 0.009348920500201665
185.060089 0.003914846007133668
186.935257 0.0004657651083501981
189.054062 0.0014971720133601747
195.042801 0.0006491540053175665
199.038208 0.0020540090084681735
201.05278 0.0011304831568148498
203.0336 0.004307771393555508
203.070938 0.0005901885161374669
213.054092 0.006382858563314305
217.048615 0.0017448626428723576
218.055954 0.0005077435561526218
219.065384 0.003115032064152318
227.033096 0.0007596142429671648
230.907516 0.00042405347271601
231.064041 0.0029596584448497026
241.048874 0.019967422234258417
244.033951 0.00032844577909820155
245.045868 0.002833456289274195
245.929855 0.0003257776574158441
252.530991 0.0003867887065524177
258.050751 0.0005376265189950253
259.059296 0.003912533635008958
263.055298 0.0026454426480574072
263.903687 0.0007100761170647282
263.93988 0.0013514036321140462
269.011353 0.0005897438291904074
269.043579 0.014415594637609042
285.802856 0.0004983161928749589
286.046387 0.0006833059628517419
287.054321 1.0
288.313141 0.0006262970962387044
END IONS

BEGIN IONS
CHARGE=1+
PRECURSORTYPE=M+H
FORMULA=C15H10O6
ONTOLOGY=
INCHIKEY=IQPNAANSBPBGFQ-UHFFFAOYSA-N
INCHI=InChI=1S/C15H10O6/c16-8-4-11(19)15-12(20)6-13(21-14(15)5-8)7-1-2-9(17)10(18)3-7/h1-6,16-19H
SMILES=O=c1cc(-c2ccc(O)c(O)c2)oc2cc(O)cc(O)c12
IONMODE=positive
INSTRUMENTTYPE=LC-ESI-Orbitrap
INSTRUMENT=Orbitrap
COMMENT=DB#=CCMSLIB00010117939; origin=GNPS
NUM_PEAKS=46
COMPOUND_NAME=luteolin
PRECURSOR_MZ=287.055
COLLISION_ENERGY=205060
PARENT_MASS=286.04772354800923
51.562248 0.0003314390836230973
55.015949 0.0003746411917789732
67.018204 0.008169211021165421
68.997437 0.005543512614948705
71.090553 0.00038708018886410154
73.988136 0.00033585292129846545
74.785057 0.00040353176565411
89.038696 0.0018242524864953286
101.450752 0.00045302024868096476
101.913399 0.00037584496569043724
107.049316 0.0015425693912127446
109.354362 0.00036581351642823697
111.00769 0.0009685029881012298
111.043747 0.0005802190253256643
117.033493 0.002410356628721484
125.022797 0.0005633661905651679
126.83149 0.0003898889946575176
129.018021 0.0028224485644126715
135.043961 0.03049894957350959
137.0233 0.007588055727241952
153.018112 0.08566737292527894
161.023224 0.00906950015428369
171.028564 0.012474976549815442
171.044083 0.0008479918442979972
179.034119 0.006179372745515374
185.060654 0.001508997474348581
189.05423 0.000687221150789134
191.25946 0.0004799045327036615
196.498947 0.00041811080524850776
199.038177 0.0005981418813407954
201.054993 0.0005297942737010042
203.033951 0.002660875354962832
213.054016 0.002741260701717264
217.049179 0.0005651049751039493
219.065216 0.0016078406877454612
231.063995 0.0017465421928774837
241.048889 0.009156706886536418
245.044434 0.001862907004319007
259.060242 0.002815894684228034
263.055054 0.00227392891875556
263.904602 0.0032606222681855796
269.044342 0.007958951844629704
285.801025 0.0006626106619325359
286.049347 0.0005549397731849196
287.054596 1.0
569.771912 0.0004831145964675656
END IONS

BEGIN IONS
CHARGE=1+
PRECURSORTYPE=M+H
FORMULA=C18H17NO3
ONTOLOGY=
INCHIKEY=CLBYJZSPPMBDDF-UHFFFAOYSA-N
INCHI=InChI=1S/C18H17NO3/c1-13(20)19-16-8-6-15(7-9-16)18(21)12-5-14-3-10-17(22-2)11-4-14/h3-12H,1-2H3,(H,19,20)/b12-5+
SMILES=COc1ccc(C=CC(=O)c2ccc(N=C(C)O)cc2)cc1
IONMODE=positive
INSTRUMENTTYPE=LC-ESI-Orbitrap
INSTRUMENT=Orbitrap
COMMENT=DB#=CCMSLIB00010117893; origin=GNPS
NUM_PEAKS=77
COMPOUND_NAME=N-{4-[(2E)-3-(4-methoxyphenyl)prop-2-enoyl]phenyl}acetamide
PRECURSOR_MZ=296.128
COLLISION_ENERGY=205060
PARENT_MASS=295.1207235480092
55.01844 0.0009619332341315705
60.68483 0.000504434323809939
65.038948 0.009790880729487517
65.737953 0.0005285832752944136
66.046913 0.004718551644239777
68.04995 0.007540001125071773
69.717133 0.0006490931207373655
78.034264 0.0006308639511342991
79.018204 0.0013453409061438316
79.054573 0.035633719854372116
87.839859 0.0005353174187044811
89.038872 0.0020787830882919496
90.046822 0.0024539218586285927
91.054497 0.007146194682770478
92.049622 0.02252688426657285
92.401154 0.0008957506991293724
94.041382 0.003392755414783769
94.065193 0.002367771805375613
95.049217 0.0022797424562872657
102.046463 0.0012672405033856767
103.054199 0.034458721454905736
105.061852 0.0010740488915098802
105.069939 0.029789188110371796
106.065224 0.0010316551096237112
107.049377 0.0008234917742594854
108.044342 0.0011544044492704762
109.064934 0.014701371121712846
110.060066 0.007688261905683655
111.044067 0.0006968115741570764
115.053596 0.0008081285308053547
117.057419 0.0010671268185162759
118.041367 0.057382857539478055
118.065117 0.015843779399234224
119.049217 0.0009304080464932778
120.044441 0.7165910375379321
121.028419 0.13167112435638817
121.036827 0.0028693402030366163
121.064857 0.0024617365971439965
133.064835 0.5723413006706706
135.043915 0.0008695971654205056
137.059845 0.017772672983856975
145.052948 0.0006222348510902359
146.060059 0.31287350221688
147.043915 0.02835152679631553
158.010193 0.0006116638120162928
160.075867 0.0020726597160283765
161.059723 0.7961886126449297
162.054886 0.09399381122824135
185.447662 0.0005592941014040469
188.070526 0.22370042934392656
193.088287 0.004573563970541161
194.073471 0.001314864992013619
194.09642 0.001060095119932275
198.25119 0.0005928082104681038
207.894241 0.003453848190231846
209.09613 0.002368742774890553
210.089951 0.0007134276815014522
211.099136 0.0009798335269634475
212.107315 0.0007750999064987679
220.074432 0.00057277804902281
221.08374 0.019673361470150582
222.068329 0.0020873495451415
222.091507 0.001075928187345248
226.122467 0.0036295936724359797
234.374557 0.0005709613963819546
236.106705 0.04697408000012027
237.091293 0.008203235946970281
238.087723 0.0005989629043289329
239.093719 0.005924902962559541
253.108444 0.0006379739537114401
254.117172 0.03283771917131072
255.100769 0.00956729150747465
266.081055 0.0009854870752681786
272.2276 0.0005333911404732292
278.117401 0.009640959904221062
296.127899 1.0
311.8974 0.0006437371276065677
END IONS

BEGIN IONS
CHARGE=1+
PRECURSORTYPE=M+H
FORMULA=C18H20N2O
ONTOLOGY=
INCHIKEY=SUZMCIRGERDWMV-UHFFFAOYSA-N
INCHI=InChI=1S/C18H20N2O/c1-20(2)12-15-11-19-18-16(15)9-6-10-17(18)21-13-14-7-4-3-5-8-14/h3-11,19H,12-13H2,1-2H3
SMILES=CN(C)Cc1c[nH]c2c(OCc3ccccc3)cccc12
IONMODE=positive
INSTRUMENTTYPE=LC-ESI-Orbitrap
INSTRUMENT=Orbitrap
COMMENT=DB#=CCMSLIB00010123902; origin=GNPS
NUM_PEAKS=25
COMPOUND_NAME=7-Benzyloxygramine
PRECURSOR_MZ=281.165
COLLISION_ENERGY=205060
PARENT_MASS=280.15772354800924
62.270771 0.0032072686983070898
65.038872 0.012351455558502108
75.948158 0.003322508222964877
80.049583 0.0037820778935881007
85.064507 0.003325285078980727
85.941307 0.0030031697811420933
91.054337 1.0
92.363647 0.00335027678312338
108.044006 0.01415918882482065
143.07254 0.004315234248631357
158.060013 0.02062232120171221
191.085556 0.01278603352498268
193.088303 0.006432586960717206
208.111771 0.02592889304800212
217.089249 0.007432255126423312
218.096191 0.01946992595513434
219.080765 0.015625368801189605
221.082993 0.017555283732205558
234.951477 0.17908916345824094
236.106674 0.5758921691271925
252.961716 0.019510190367364167
257.96759 0.0926900653810749
281.134827 0.006446471240796458
281.165558 0.012355620842525884
299.061493 0.00420277157998942
END IONS

BEGIN IONS
CHARGE=1+
PRECURSORTYPE=M+H
FORMULA=C23H25N3O3
ONTOLOGY=
INCHIKEY=FSJCNGLCLCELJX-UHFFFAOYSA-N
INCHI=InChI=1S/C23H25N3O3/c1-4-11-24-23(29)18-13-22(28)26(20-8-6-5-7-17(18)20)14-21(27)25-19-12-15(2)9-10-16(19)3/h5-10,12-13H,4,11,14H2,1-3H3,(H,24,29)(H,25,27)
SMILES=CCCN=C(O)c1cc(=O)n(CC(O)=Nc2cc(C)ccc2C)c2ccccc12
IONMODE=positive
INSTRUMENTTYPE=LC-ESI-Orbitrap
INSTRUMENT=Orbitrap
COMMENT=DB#=CCMSLIB00010125038; origin=GNPS
NUM_PEAKS=26
COMPOUND_NAME="N-(2,5-dimethylphenyl)-2-[2-oxo-4-(N-propylcarbamoyl)hydroquinolyl]acetamide "
PRECURSOR_MZ=392.197
COLLISION_ENERGY=205060
PARENT_MASS=391.1897235480092
66.743187 0.007158383169465374
68.172173 0.006498406370014979
70.065689 0.010627203207532295
86.059952 0.02582018447815657
112.311867 0.00585194445382978
128.049393 0.11847371918325056
129.459122 0.006410559628791206
130.065155 0.4106654953767837
133.052155 0.02722798481828113
144.044235 0.029507495129010824
146.060013 0.19400164431079728
151.803619 0.005291076798324155
155.06105 0.005550112060907074
156.04451 0.02485837528578347
157.07605 0.0241195616672861
158.059967 0.205221249901454
173.070969 0.0260431800520323
174.055084 0.007692221058440607
186.054672 0.027246004662634726
201.065689 0.03144688087756642
215.117905 0.02909754366996655
231.112671 0.36533207194422856
243.112762 0.2681352839814846
271.10733 1.0
284.139252 0.012431440123435934
331.423157 0.005419468189343514
END IONS

BEGIN IONS
CHARGE=1+
PRECURSORTYPE=M+H
FORMULA=C18H27NO3
ONTOLOGY=
INCHIKEY=YKPUWZUDDOIDPM-UHFFFAOYSA-N
INCHI=InChI=1S/C18H27NO3/c1-14(2)8-6-4-5-7-9-18(21)19-13-15-10-11-16(20)17(12-15)22-3/h6,8,10-12,14,20H,4-5,7,9,13H2,1-3H3,(H,19,21)/b8-6+
SMILES=COc1cc(CN=C(O)CCCCC=CC(C)C)ccc1O
IONMODE=positive
INSTRUMENTTYPE=LC-ESI-Orbitrap
INSTRUMENT=Orbitrap
COMMENT=DB#=CCMSLIB00010116046; origin=GNPS
NUM_PEAKS=65
COMPOUND_NAME=Capsaicin
PRECURSOR_MZ=306.206
COLLISION_ENERGY=205060
PARENT_MASS=305.19872354800924
51.023651 0.0002595636871608935
55.054611 0.0004616721564660881
57.034 0.00027926418688409873
57.07016 0.001626141805843289
58.029171 0.0036426717872600654
60.565472 0.00018416400298350074
65.039131 0.001351377454550563
66.046631 0.0019021683061433512
67.054543 0.005101002651171428
69.005241 0.00018279210188857002
69.03373 0.00027136203657729776
69.070183 0.016155178037641455
70.065376 0.00020254747765557248
71.049332 0.0001951940877867438
71.085876 0.0009053449705666852
72.05056 0.00019168202098372112
72.081062 0.000900021994318354
77.038712 0.00025363707443079277
79.054352 0.008823464206112665
80.103683 0.00021363243850261275
81.070038 0.009820781426083506
83.049248 0.0004747875309336259
83.08564 0.0021473544698293705
83.822533 0.00019678549305686342
84.080688 0.0017569114182120857
86.060143 0.0009197224940415592
91.05423 0.00668351800219592
93.069748 0.005935228268976904
94.041237 0.0201389044371013
94.888283 0.00020781557786010647
95.049004 0.0008884980251209359
95.085472 0.0034043451290486997
97.064774 0.004369559863398161
98.060219 0.00023591211228428776
98.096527 0.0004706169516050365
100.075729 0.002610014395083809
100.08284 0.00027251443349703955
104.271843 0.0002874955934536831
105.03334 0.0011296233615659603
105.069649 0.0028477374168134053
107.048889 0.003409174220902856
107.085403 0.007922564195093554
109.064697 0.003716809322430122
109.100937 0.006380492488347621
111.080399 0.0011629331201508783
111.116364 0.000998030608540205
112.075813 0.00027591674821246775
114.091347 0.004025157812526752
122.036049 0.07270757522078827
123.116852 0.0012477714838613945
126.091499 0.0031367695394934106
133.101059 0.0064773487056497304
135.043732 0.0010625648360457465
135.116714 0.010627623898034165
137.05957 1.0
138.127579 0.001040230286220274
147.116409 0.0016887004957721302
151.111664 0.0035084998601758403
153.127213 0.008484769263796167
165.127106 0.0011965721349985797
170.153748 0.02337938969937147
182.153595 0.030935436797943333
220.591827 0.00029539774376048406
220.615799 0.0003167445247976062
306.205658 0.022403638764612942
END IONS

BEGIN IONS
CHARGE=1+
PRECURSORTYPE=M+H
FORMULA=C21H24ClNO5
ONTOLOGY=
INCHIKEY=XPGFHNDBGHFQQE-UHFFFAOYSA-N
INCHI=InChI=1S/C21H24ClNO5/c1-10(2)28-21(26)17-11(3)23-14-6-5-7-15(24)19(14)18(17)12-8-13(22)20(25)16(9-12)27-4/h8-10,18,23,25H,5-7H2,1-4H3
SMILES=COc1cc(C2C(C(=O)OC(C)C)=C(C)NC3=C2C(=O)CCC3)cc(Cl)c1O
IONMODE=positive
INSTRUMENTTYPE=LC-ESI-Orbitrap
INSTRUMENT=Orbitrap
COMMENT=DB#=CCMSLIB00010117662; origin=GNPS
NUM_PEAKS=40
COMPOUND_NAME="methylethyl 4-(3-chloro-4-hydroxy-5-methoxyphenyl)-2-methyl-5-oxo-1,4,6,7,8-pe ntahydroquinoline-3-carboxylate "
PRECURSOR_MZ=406.142
COLLISION_ENERGY=205060
PARENT_MASS=405.1347235480092
58.831619 0.0004580679657916622
64.014664 0.0004661642629216617
66.373718 0.0003780172533232164
67.906563 0.0003519038442701194
74.691589 0.0003695788591313859
82.875282 0.00038371887102039916
90.970901 0.0004154198654167352
104.287071 0.00042477051844011494
106.064728 0.0005480394930532061
111.177727 0.00038063999746392043
132.08075 0.0006008364729291183
134.059586 0.0008744000900399466
134.096512 0.0006486160292315098
144.078812 0.0011405516041444374
150.054382 0.0030629090269265738
160.075394 0.05597734222740081
161.083664 0.0008143050395116405
162.090927 0.009589664837245613
178.049881 0.006689251914688747
185.001404 0.0004489453774761698
188.070282 0.08156266744938474
199.603424 0.0004043587270842007
205.320328 0.0005606970843409517
206.080856 1.0
206.846405 0.0005376625488443334
248.127579 0.3345752597001337
266.080536 0.0005824772639441898
267.051056 0.0005560217578292619
267.087677 0.0021887370015945145
268.096527 0.001738309203517077
286.06131 0.000737789330015448
295.082123 0.003106811483194881
296.089874 0.005062238288620677
302.057007 0.0026891109706992725
310.107086 0.0005175928545502501
314.057617 0.004389447400353113
316.036896 0.0019173399992086155
330.051422 0.0018919107842791803
331.059235 0.004053850182696936
346.083801 0.013943648175522249
END IONS

BEGIN IONS
CHARGE=1+
PRECURSORTYPE=M+H
FORMULA=C19H19N5O2S
ONTOLOGY=
INCHIKEY=JDLXWYZXYPEFMD-UHFFFAOYSA-N
INCHI=InChI=1S/C19H19N5O2S/c1-4-24-16-15(17(25)21-10-20-16)23-19(24)27-9-14-12(3)26-18(22-14)13-7-5-6-11(2)8-13/h5-8,10H,4,9H2,1-3H3,(H,20,21,25)
SMILES=CCn1c(SCc2nc(-c3cccc(C)c3)oc2C)nc2c(O)ncnc21
IONMODE=positive
INSTRUMENTTYPE=LC-ESI-Orbitrap
INSTRUMENT=Orbitrap
COMMENT=DB#=CCMSLIB00010116609; origin=GNPS
NUM_PEAKS=22
COMPOUND_NAME="9-ethyl-8-{[5-methyl-2-(3-methylphenyl)(1,3-oxazol-4-yl)]methylthio}hydropurin -6-one "
PRECURSOR_MZ=382.133
COLLISION_ENERGY=205060
PARENT_MASS=381.1257235480092
63.210281 0.0008353422511792774
65.039139 0.0015112553649565456
66.741096 0.0012900474368112578
69.033836 0.02734940423324217
88.957748 0.0009529212400132592
91.054466 0.004117589617443142
117.069687 0.004578273395727698
118.065002 0.7149071557775458
119.049103 0.008896478011068368
125.939827 0.0010924217352400172
132.982025 0.0009784963308048316
136.075638 0.004266390145685017
159.091354 0.00343104789450574
159.425247 0.001001082125270116
169.017868 0.0064741515546665905
172.360825 0.0010575466114333277
186.091141 1.0
197.048981 0.011846249197041792
227.117477 0.00697402832922914
246.150757 0.0010748181013185453
382.132507 0.0901252913733558
407.710846 0.0010638573481221573
END IONS

BEGIN IONS
CHARGE=1+
PRECURSORTYPE=M+H
FORMULA=C25H36O5
ONTOLOGY=
INCHIKEY=BYOXXAISBYDIEU-UHFFFAOYSA-N
INCHI=InChI=1S/C25H36O5/c1-14(28-15(2)26)25-22(30-25)13-21-19-7-6-17-12-18(29-16(3)27)8-10-23(17,4)20(19)9-11-24(21,25)5/h6,14,18-22H,7-13H2,1-5H3/t14-,18?,19?,20?,21?,22?,23?,24?,25?/m0/s1
SMILES=CC(=O)OC1CCC2(C)C(=CCC3C2CCC2(C)C3CC3OC32C(C)OC(C)=O)C1
IONMODE=positive
INSTRUMENTTYPE=LC-ESI-Orbitrap
INSTRUMENT=Orbitrap
COMMENT=DB#=CCMSLIB00010125288; origin=GNPS
NUM_PEAKS=96
COMPOUND_NAME="1-((6R)-14-acetyloxy-7,11-dimethyl-5-oxapentacyclo[8.8.0.0<2,7>.0<4,6>.0<11,16 >]octadec-16-en-6-yl)(1S)ethyl acetate "
PRECURSOR_MZ=417.264
COLLISION_ENERGY=205060
PARENT_MASS=416.25672354800923
50.534 0.008560717196414018
52.682419 0.008247758761206194
53.039009 0.016707416462917686
55.054562 0.046428687856560714
65.039162 0.008290138549307253
67.054703 0.19938060309698452
69.070343 0.07512632436837816
73.95031 0.008309698451507742
79.054497 0.19632273838630807
81.070122 0.5720847595762021
81.075531 0.019895680521597393
83.085747 0.012710676446617768
91.054283 0.3790480847595762
93.069923 0.28447269763651184
95.085564 0.17717359413202935
105.069801 0.4372844335778321
107.085533 0.2580277098614507
109.101051 0.13132192339038304
111.080063 0.016909535452322738
115.054176 0.01093724531377343
117.069687 0.21327465362673187
119.085411 0.47830480847595763
121.101067 0.1430839445802771
123.117188 0.010252648736756317
128.061722 0.04619396903015485
129.06958 0.15222167889160554
130.07663 0.011657701711491443
131.085403 0.29783863080684597
133.101013 0.3740146699266504
135.079742 0.013916870415647922
135.11673 0.1034360228198859
137.095612 0.048994295028524856
141.06958 0.05732355338223309
141.656342 0.009059494702526488
142.077652 0.11868622656886715
143.085449 0.19944580277098614
144.09343 0.015429502852485738
145.101089 0.33377343113284436
147.116699 0.37188916055419724
149.131943 0.08162347188264059
149.143753 0.008818255908720457
151.112152 0.01086878565607172
155.085403 0.14559739201303992
156.092865 0.04143765281173594
157.101044 0.5855550122249389
158.1091 0.011250203748981256
159.116699 0.33455908720456395
161.132858 0.07257375713121435
163.111023 0.014875305623471882
167.084641 0.01591524042379788
168.093872 0.01708883455582722
169.101013 0.10179299103504483
171.116867 0.1699951100244499
173.132202 0.12709046454767725
175.147873 0.03743439282803586
179.084686 0.011625101874490628
181.100525 0.053418092909535454
182.109055 0.014272208638956806
183.101242 0.010546047269763652
183.116959 0.14883129584352078
185.132278 0.14880195599022006
187.111572 0.014764466177669112
187.147415 0.042898125509372456
191.142807 0.01054278728606357
194.109512 0.021646291768541156
195.097565 0.010842705786471068
195.115601 0.0903080684596577
197.131332 0.08286226568867155
199.148193 0.06804563977180114
207.117157 0.014992665036674816
209.13179 0.09269111654441728
211.147446 0.07937734311328444
212.155212 0.019338223308883455
213.164001 0.12375550122249389
221.132126 0.013910350448247759
222.138657 0.011511002444987775
223.147751 0.07545884270578647
225.163422 0.054836185819070904
235.146667 0.013949470252648737
236.155258 0.011191524042379788
237.162338 0.06165933170334148
239.177673 0.012485737571312144
249.164413 0.017046454767726163
251.17868 0.021088834555827222
253.166 0.017594132029339852
253.194656 0.3766748166259169
264.186157 0.0141320293398533
269.225372 0.06081173594132029
279.210266 1.0
297.220673 0.5615876120619397
313.217285 0.07714751426242869
339.230988 0.12683944580277098
357.241516 0.1487726161369193
375.251923 0.01784515077424613
379.285065 0.009750611246943765
417.259308 0.04770334148329258
END IONS

BEGIN IONS
CHARGE=1+
PRECURSORTYPE=M+H
FORMULA=C13H15NO5
ONTOLOGY=
INCHIKEY=BDDRVKWDFUPFJD-UHFFFAOYSA-N
INCHI=InChI=1S/C13H15NO5/c1-17-12-8-10(9-15)2-3-11(12)19-13(16)14-4-6-18-7-5-14/h2-3,8-9H,4-7H2,1H3
SMILES=COc1cc(C=O)ccc1OC(=O)N1CCOCC1
IONMODE=positive
INSTRUMENTTYPE=LC-ESI-Orbitrap
INSTRUMENT=Orbitrap
COMMENT=DB#=CCMSLIB00010122600; origin=GNPS
NUM_PEAKS=15
COMPOUND_NAME=4-formyl-2-methoxyphenyl morpholine-4-carboxylate
PRECURSOR_MZ=266.102
COLLISION_ENERGY=205060
PARENT_MASS=265.0947235480092
60.044868 0.0177802008305644
66.771423 0.0008195001479055881
68.172821 0.0009519272442093243
70.029114 0.7813792024105172
72.044693 0.007077970322571768
83.752838 0.0007406744953438404
86.433998 0.0008169203992762945
88.03936 0.003914338586848098
91.05471 0.0011187509889036412
108.933792 0.0007567262645927781
111.055054 0.0043586286285597665
114.054939 1.0
119.828903 0.0008963193293112186
183.355576 0.0008530368800864044
266.10141 0.034687013430744644
END IONS

BEGIN IONS
CHARGE=1+
PRECURSORTYPE=M+H
FORMULA=C19H21NO4
ONTOLOGY=
INCHIKEY=XDZOCYYGFXEJLH-UHFFFAOYSA-N
INCHI=InChI=1S/C19H21NO4/c1-22-15-10-14(11-16(12-15)23-2)19(21)20-9-5-7-13-6-4-8-17(24-3)18(13)20/h4,6,8,10-12H,5,7,9H2,1-3H3
SMILES=COc1cc(OC)cc(C(=O)N2CCCc3cccc(OC)c32)c1
IONMODE=positive
INSTRUMENTTYPE=LC-ESI-Orbitrap
INSTRUMENT=Orbitrap
COMMENT=DB#=CCMSLIB00010118192; origin=GNPS
NUM_PEAKS=56
COMPOUND_NAME="3,5-dimethoxyphenyl 8-methoxy(1,2,3,4-tetrahydroquinolyl) ketone "
PRECURSOR_MZ=328.154
COLLISION_ENERGY=205060
PARENT_MASS=327.1467235480092
51.023392 0.0012124148481901524
53.039101 0.01928378028559235
55.01825 0.0012482713103991903
58.366638 0.000851226582523502
63.634159 0.0008742563428041036
65.038811 0.0014832331684519104
66.046631 0.003976860629721101
68.025963 0.007191115526606078
68.997498 0.0009908627239717067
69.033852 0.0014258045257268658
73.971237 0.000849185970853069
77.038727 0.005060133910768133
79.018013 0.007550263180602295
79.054482 0.027315336304463925
79.274208 0.0007856354931167253
81.033813 0.0031868523973105902
81.07016 0.005950132115029863
83.049332 0.001006021553523495
92.025803 0.00838895457715028
92.396637 0.0009929033356421396
92.402657 0.0009722057029848901
93.03376 0.0015782673691035068
94.041473 0.014484844668639647
95.049271 0.00849798154354199
96.020439 0.0015269605613897614
98.036186 0.0013596304044142511
98.983963 0.0019245883211712878
104.093826 0.0009724972189378092
104.311096 0.0010605350367193494
105.033287 0.0033483522352277207
105.044746 0.0017336453720093379
107.01284 0.008546373191726544
107.048943 0.006482148729107052
109.064751 0.0385905903314653
111.044083 0.0015263775294839235
122.03614 0.2495169580660132
125.059639 0.05478313545230449
125.067879 0.00084889445490015
125.07045 0.0010625756483897825
130.064972 0.0011334140249491013
135.044556 0.0012406918956232962
135.055084 0.014922701629923997
136.247375 0.0010751108343652997
137.059494 0.011545197799404374
148.075333 0.0012648877197155737
150.031464 0.0017129477393520883
155.070114 0.49337763209753893
157.074539 0.0008614296408756672
162.091049 0.01297420900061335
165.05452 1.0
178.086227 0.007623433684784966
190.084991 0.0010745278024594618
234.870209 0.0009051570338135184
263.640167 0.0009016588423784904
277.069 0.0009993166866063578
328.153687 0.09895450718645127
END IONS

BEGIN IONS
CHARGE=1+
PRECURSORTYPE=M+H
FORMULA=C21H24N2O4
ONTOLOGY=
INCHIKEY=VLKOBKMDQICOFI-UHFFFAOYSA-N
INCHI=InChI=1S/C21H24N2O4/c1-13-15(16-7-5-6-8-17(16)23-13)9-10-22-21(24)14-11-18(25-2)20(27-4)19(12-14)26-3/h5-8,11-12,23H,9-10H2,1-4H3,(H,22,24)
SMILES=COc1cc(C(O)=NCCc2c(C)[nH]c3ccccc23)cc(OC)c1OC
IONMODE=positive
INSTRUMENTTYPE=LC-ESI-Orbitrap
INSTRUMENT=Orbitrap
COMMENT=DB#=CCMSLIB00010117618; origin=GNPS
NUM_PEAKS=103
COMPOUND_NAME="N-[2-(2-methylindol-3-yl)ethyl](3,4,5-trimethoxyphenyl)carboxamide "
PRECURSOR_MZ=369.181
COLLISION_ENERGY=205060
PARENT_MASS=368.1737235480092
50.015579 0.0011319456016019407
51.023399 0.0014557413377496715
53.039051 0.01135071043070548
55.018391 0.0009640647455738837
55.054451 0.0008667295684086806
55.484859 0.0006577714816503545
65.039017 0.008925189254410756
65.749893 0.0005448983954697887
66.046654 0.003975740144724013
67.018242 0.0012807166155076547
67.05452 0.004933018217394635
68.026001 0.0014178788468156842
68.566788 0.0006550925318201195
69.033829 0.0032379573614773087
71.049316 0.002171199539077752
75.044273 0.0037651746880675466
77.038918 0.0006993845023466707
78.046661 0.0014312735959668588
79.054497 0.06082484150886313
80.062279 0.000686525543161543
81.033699 0.03655373464358984
81.070107 0.03357420664240252
82.041473 0.0009537061395636419
82.403069 0.0007177799578476174
83.049316 0.0028637973685211606
85.028351 0.003576398023363657
91.054466 0.004192735080973045
92.025787 0.0013219724428932729
92.381027 0.0008252951443677134
93.033493 0.0050730379951882485
94.04126 0.01047844436598098
95.042488 0.000794755116303035
95.049103 0.009118252238843022
96.020363 0.0006820606267778181
96.056961 0.029795458608528454
97.027786 0.0008027919657937398
98.036102 0.0008720874680691505
99.043991 0.0024514176913203274
105.033012 0.000844404986490056
105.044724 0.002379264642559333
106.041023 0.0007588571885778866
107.012833 0.0009317387509557154
107.049057 0.004138977487712997
108.056877 0.011812382784782636
109.028183 0.008952335946023805
109.064751 0.04453289741461696
111.04425 0.002056719082999045
111.080437 0.012110282005904763
113.0233 0.009562957910662024
113.059601 0.008708908704783122
117.057037 0.0032433152611377786
117.06955 0.0035776481999511
121.028297 0.007151367273484523
121.065063 0.0006290174201391661
122.036079 0.03886281080059701
123.043861 0.003762495738237312
124.051811 0.06809354678491195
125.059387 0.0013985904080379924
127.038612 0.002799145379284824
128.046661 0.015704182501492622
129.514664 0.0006659869277964084
130.064926 0.003978240497898899
131.08522 0.002435343992338918
135.044464 0.0012014197005327002
136.220245 0.000683310803365261
137.023148 0.01279091385943979
138.250015 0.0006068714348758905
139.075195 0.10733033898180976
140.047073 0.0009340605074752523
141.018036 0.014343275987733268
141.05455 0.0007102788983229596
141.069992 0.0013030411974262793
143.072708 0.054016201216993326
151.038635 0.01233656396823194
152.046631 0.14586417474325392
153.938644 0.0006213377639591592
154.06163 0.002055468906411602
155.034012 0.0009979981100901932
156.041473 0.028786030312495926
156.080887 0.0007763596608020883
157.087723 0.002733779003427091
157.981201 0.0006202661840270652
158.096298 0.35851760489740603
162.030319 0.0009060208325854599
167.034027 0.0009324531375771113
167.069916 0.001426630082927785
171.064667 0.000951384383044105
180.04129 0.0013673359933519182
184.03656 0.011363926583201307
185.080795 0.009830317103719472
192.065292 0.0007902901999193101
194.363251 0.0007676084246899874
195.064987 1.0
196.068787 0.0009808528311766895
197.071075 0.000949062626524568
199.893814 0.0005957984422442528
201.102188 0.000844762179800754
212.090897 0.0012873246917555676
238.10733 0.0027653906114238637
275.463043 0.0007672512313792895
296.890198 0.000742783489596477
352.153473 0.002538037069164591
369.180023 0.04412230370396961
END IONS

BEGIN IONS
CHARGE=1+
PRECURSORTYPE=M+H
FORMULA=C27H25ClN2O3
ONTOLOGY=
INCHIKEY=DLADOAYNOOCYAW-UHFFFAOYSA-N
INCHI=InChI=1S/C27H25ClN2O3/c1-32-24-9-5-6-19(27(24)33-2)26-25-22(29-20-7-3-4-8-21(20)30-26)14-17(15-23(25)31)16-10-12-18(28)13-11-16/h3-13,17,26,29-30H,14-15H2,1-2H3
SMILES=COc1cccc(C2Nc3ccccc3NC3=C2C(=O)CC(c2ccc(Cl)cc2)C3)c1OC
IONMODE=positive
INSTRUMENTTYPE=LC-ESI-Orbitrap
INSTRUMENT=Orbitrap
COMMENT=DB#=CCMSLIB00010117243; origin=GNPS
NUM_PEAKS=101
COMPOUND_NAME="11-(2,3-dimethoxyphenyl)-3-(4-chlorophenyl)-2,3,4-trihydro-5H,10H,11H-benzo[b] benzo[2,1-f]1,4-diazepin-1-one "
PRECURSOR_MZ=461.163
COLLISION_ENERGY=205060
PARENT_MASS=460.15572354800923
57.38092 0.000278269466490283
65.038834 0.00030338170526719477
66.74543 0.0003579480821000615
91.054321 0.00032492787002808975
92.049133 0.0007243621872457812
102.046051 0.0016916189311817402
103.05378 0.0007527274477395936
104.049942 0.00033250918005450704
115.833656 0.0003823321340072905
116.049217 0.0012915653148505804
116.318268 0.0003174146148493064
117.057281 0.0006102750406722992
119.060204 0.00424337627612367
125.014923 0.0029642513874205676
130.064972 0.04876199248914035
131.060547 0.0021490359785835207
132.067673 0.002764803045459876
133.06459 0.0006161277575688151
133.07579 0.012945134508500813
136.052032 0.0014474449433560447
137.014999 0.013270722510550951
137.059814 0.001047758823202108
138.99411 0.0003202933349042207
140.048828 0.0023152531384445754
142.052292 0.0011811395190798027
143.06015 0.0003389948070340184
144.067474 0.0004227226860780144
144.080078 0.0003842716971648568
145.075821 0.0014179159449676925
147.055115 0.0003695582391064061
149.014572 0.0011653099615201558
155.060638 0.0005706807303188919
156.06778 0.008661360874821656
156.080582 0.0005615954081597653
157.075775 0.4251710272764918
158.083572 0.0033380018051412225
159.055099 0.0006878915943987703
159.091614 0.004877252737955408
163.030121 0.000653714449917022
165.009949 0.02952187304580505
166.065048 0.003384496877044708
167.072723 0.001437713100144396
169.075623 0.0004932479246810324
170.083298 0.003161324615198836
171.055954 0.0006574438555673602
174.078781 0.00040675701882309976
176.045563 0.0006092950508663708
177.066147 0.00044058708358191503
182.083664 0.0029538458012173434
183.091415 0.03845727718107892
184.062408 0.0005468955610708414
185.070587 0.32890872472946564
187.08699 0.0005282825602429678
191.070389 0.0007003456315157752
194.058563 0.00034650125672803833
196.061966 0.0003629501134011537
197.070236 0.0012715095512528679
198.078323 0.008447852401339799
201.054306 0.000553122579629344
208.683655 0.0014828538805799667
210.077347 0.000321831374460747
211.086105 0.046491410552682674
215.06839 0.0012222038141421023
219.091766 0.0012541691760757485
221.093735 0.00033946438548269236
222.07753 0.0006524486297510314
237.089905 0.0005360816457818135
241.040634 0.0004906686459557073
245.107727 0.0032076427444984734
246.115189 0.0007095126194920626
247.084869 0.00036893213450817417
249.098862 0.0003961676845312638
255.067154 0.0034043961144928623
256.064056 0.002073277322197455
259.122711 0.0006938191716276836
265.096375 0.0005347069378596086
269.107819 0.0012141733421213012
270.116425 0.0024294968111676155
272.093536 0.0005395796649501964
278.074219 0.00036929963068539726
279.068268 0.0022963883346804564
280.077393 0.0003601802811024537
281.08316 0.00937095516013088
287.08255 0.0023110337378912734
287.117218 0.0034776707689402903
288.123535 0.0032221384270444955
293.083374 0.0004913151670082294
295.098511 0.0019308044986758705
296.083374 0.0004729131362080209
297.075836 0.0038730286007847103
305.083038 0.013265305344679292
308.070679 0.0020102993661970372
314.994568 0.0003142228424952762
321.080627 0.0004953372085033934
321.588715 0.0005994951528070883
322.084229 0.0006673390304133302
323.093628 1.0
324.610779 0.0006858771709088066
329.091919 0.0005661074445578934
429.133667 0.000516563515480409
461.161285 0.09752721077805855
END IONS

BEGIN IONS
CHARGE=1+
PRECURSORTYPE=M+H
FORMULA=C17H14INO3
ONTOLOGY=
INCHIKEY=SIPWMMYQAMLGJU-UHFFFAOYSA-N
INCHI=InChI=1S/C17H14INO3/c1-22-17(21)15(19-14-9-7-13(18)8-10-14)11-16(20)12-5-3-2-4-6-12/h2-11,19H,1H3/b15-11+
SMILES=COC(=O)C(=CC(=O)c1ccccc1)Nc1ccc(I)cc1
IONMODE=positive
INSTRUMENTTYPE=LC-ESI-Orbitrap
INSTRUMENT=Orbitrap
COMMENT=DB#=CCMSLIB00010118161; origin=GNPS
NUM_PEAKS=49
COMPOUND_NAME=methyl (2E)-2-[(4-iodophenyl)amino]-4-oxo-4-phenylbut-2-enoate
PRECURSOR_MZ=408.009
COLLISION_ENERGY=205060
PARENT_MASS=407.00172354800924
50.015549 0.002998685569856139
51.023529 0.013147326594294859
51.514 0.0020018967726126605
53.03907 0.11855660746941189
56.515099 0.0023550836984948336
77.038918 0.009011938776899306
81.0336 0.015087207675424997
83.94754 0.002129709600180299
90.976929 0.002774067760462123
91.041748 0.009008157332296714
95.042664 0.002771798893700567
95.04924 0.0332532675462811
102.046371 0.0024420569243544694
103.054153 0.314595771134872
104.290092 0.0020646687530157023
105.033447 1.0
144.044174 0.004676134395566332
144.080811 0.004336560670253493
144.957306 0.0025517188178296626
149.046677 0.0029654088573533217
161.046768 0.005390827425456383
162.054962 0.014172098081597525
164.852066 0.0023429830757665366
165.069534 0.004652689439030256
180.080215 0.0034146444761413534
185.392075 0.002206094781152675
192.080597 0.004859156314331826
193.068268 0.005308391933119858
193.088394 0.14701424697068474
204.062698 0.019616622020410725
204.081589 0.010020071907950562
217.945801 0.1836821589931072
220.075378 0.13375120817155053
221.083023 0.08912033010498803
222.090897 0.014371758356614427
232.075302 0.05439305545261623
241.945663 0.022281027887397654
245.940491 0.028739735268626262
248.07016 0.03457223542366549
249.077164 0.004834955068875232
253.072998 0.03013886977158562
264.1008 0.009218405652200876
269.940643 0.034590386357757935
280.096954 0.002174330646490895
287.950684 0.02553533911238907
347.987213 0.07912294686465302
375.982056 0.5075288562037624
389.997345 0.004236730532745041
408.008087 0.29709902695867485
END IONS

BEGIN IONS
CHARGE=1+
PRECURSORTYPE=M+H
FORMULA=C20H21ClN2O3
ONTOLOGY=
INCHIKEY=DKTGAOACMHIWJV-UHFFFAOYSA-N
INCHI=InChI=1S/C20H21ClN2O3/c1-12-14(15-5-4-6-16(21)19(15)23-12)9-10-22-20(24)13-7-8-17(25-2)18(11-13)26-3/h4-8,11,23H,9-10H2,1-3H3,(H,22,24)
SMILES=COc1ccc(C(O)=NCCc2c(C)[nH]c3c(Cl)cccc23)cc1OC
IONMODE=positive
INSTRUMENTTYPE=LC-ESI-Orbitrap
INSTRUMENT=Orbitrap
COMMENT=DB#=CCMSLIB00010122811; origin=GNPS
NUM_PEAKS=78
COMPOUND_NAME="(3,4-dimethoxyphenyl)-N-[2-(7-chloro-2-methylindol-3-yl)ethyl]carboxamide "
PRECURSOR_MZ=373.131
COLLISION_ENERGY=205060
PARENT_MASS=372.1237235480092
50.015541 0.000655948559407552
51.02356 0.0021153353166557093
53.039101 0.004286979470489477
53.545212 0.00034842327846843917
55.01836 0.0006736315100301352
62.847771 0.00031434161386066726
65.038948 0.005919244236617637
66.046799 0.013829647985798318
67.017883 0.0003828013053771482
67.054832 0.0011952291596795139
68.025864 0.0014672897519398148
68.99749 0.005919145449183991
69.033852 0.004701689116934191
73.970848 0.00038556735351922823
75.044662 0.000704947126495827
77.038887 0.0035386646606231807
78.046494 0.0007887188702273938
79.017906 0.0028720470583818913
79.054512 0.05139831142639669
81.033684 0.004224348237558093
81.070084 0.01142674244979993
82.041344 0.003449953545209328
83.049309 0.001982466218402222
85.028648 0.0006561461342748434
91.054268 0.00412526444161144
91.608719 0.00035030023970770773
92.025787 0.003166433610646124
93.033653 0.0004063127145848285
94.041367 0.02800623743856039
95.012711 0.0018666873461694433
95.049217 0.007470799669457247
97.028343 0.0012153817961432398
98.036369 0.007161101064977928
105.033508 0.005536245356373197
105.044724 0.0019503603024673642
107.012993 0.0019774280592862905
107.049004 0.0052474896878267705
108.057747 0.00042794716255324026
109.028458 0.01300319231591826
109.064728 0.029671102057791637
109.349258 0.00033133305244773036
109.555107 0.0004326889593682346
110.036041 0.0006812381424208552
111.007683 0.006918281553076759
111.043938 0.0005858094815190939
113.023193 0.00039505094714921695
113.0597 0.0014475322652106716
115.98864 0.0003885309765285997
118.683487 0.0004479022241496748
121.028259 0.005693910100471759
122.036163 0.04126963585470147
124.052147 0.0004623251894619493
126.031067 0.020450776938468765
128.291824 0.0004752663432695381
129.06958 0.0005337485039878017
130.06543 0.0020218824044268627
135.044312 0.001718407408267224
137.023453 0.0024652404066288344
137.059555 0.0016160636270102626
139.075287 0.0008299132300576573
140.046692 0.00037134196307424516
141.054321 0.005857996027757293
144.042892 0.0004031515167081656
151.017517 0.0003382481728029304
153.054855 0.00044740828698144625
154.025681 0.003152307007634787
155.070236 0.034217398541601114
156.080963 0.006532812986991177
157.07341 0.000896002023166641
157.088547 0.054627079907673265
165.054535 1.0
177.033859 0.004152430985864012
191.046265 0.0005768198250573338
192.057236 0.09520609281375754
208.097244 0.00042113082963168586
261.984619 0.00040532484024837135
278.564301 0.00037312013687986807
373.130646 0.025875590069689595
END IONS

BEGIN IONS
CHARGE=1+
PRECURSORTYPE=M+H
FORMULA=C13H14N2O4S
ONTOLOGY=
INCHIKEY=XSAYHNGEJLPKEX-UHFFFAOYSA-N
INCHI=InChI=1S/C13H14N2O4S/c1-17-9-6-8(7-10(18-2)11(9)19-3)12(16)15-13-14-4-5-20-13/h4-7H,1-3H3,(H,14,15,16)
SMILES=COc1cc(C(O)=Nc2nccs2)cc(OC)c1OC
IONMODE=positive
INSTRUMENTTYPE=LC-ESI-Orbitrap
INSTRUMENT=Orbitrap
COMMENT=DB#=CCMSLIB00010115392; origin=GNPS
NUM_PEAKS=71
COMPOUND_NAME="N-(1,3-thiazol-2-yl)(3,4,5-trimethoxyphenyl)carboxamide "
PRECURSOR_MZ=295.075
COLLISION_ENERGY=205060
PARENT_MASS=294.0677235480092
50.468948 0.0009185924521928621
51.0233 0.0012349704152669597
53.038929 0.014843660472149734
55.018131 0.001435186502459891
55.054588 0.0011300331700889172
65.038857 0.007955130713434917
66.046669 0.0015878936876070418
67.018173 0.0007880734905286305
67.054642 0.0030765929643492675
69.033737 0.0038615339997979566
71.049171 0.00163409740003618
71.60939 0.0007648411153523973
75.044083 0.004952411481387605
78.046509 0.001694397160325055
79.054329 0.055932856869513145
81.0336 0.03258275358985878
81.069946 0.030947351000205958
82.041183 0.0010279673420674881
83.012543 0.0008457628715842209
83.049423 0.0029371987132918685
84.959999 0.0010501555655504076
85.028236 0.0013453894568348996
90.976624 0.001154048659035136
91.053978 0.003100608453295486
92.025658 0.0016416674998127052
93.033234 0.003547244340110487
94.04129 0.009374393902571772
95.049057 0.010450914298378354
96.056824 0.02456862830575163
97.064247 0.0009125885799563075
99.043343 0.0012344483394203026
105.033363 0.0016586349648290554
107.012527 0.0009577481406921316
107.048813 0.00514505746880401
108.056664 0.009168696018988943
109.028152 0.0067501796593507305
109.06456 0.045255622691609015
111.043678 0.0012874390378559808
111.080292 0.013280043311412238
113.023064 0.006798210637243168
113.059387 0.01010164555696487
121.028236 0.0049730334773305535
122.035881 0.03357234835719698
123.043221 0.003622684299952413
124.05159 0.06402712079608214
125.059547 0.0009569650269221462
126.995819 0.01190385137962458
127.038567 0.0028972599110226134
128.046539 0.014933718555698054
137.022949 0.011880880042371676
139.074997 0.09916256423816995
141.017792 0.015888334241310243
141.053604 0.0009559208752288324
143.069702 0.005744139502842834
151.038284 0.012032020999978856
152.046356 0.14248102450075845
155.034332 0.0010203972422909628
156.04126 0.025449892334908523
158.780716 0.0007836358458320466
167.032944 0.0009700169230885694
167.069626 0.0016176520108664868
180.040848 0.0011201137290024357
184.03627 0.009013378454608508
185.080368 0.009784484480120788
195.064667 1.0
213.609528 0.000877348460306965
237.10965 0.0008037357659283383
277.064026 0.0042483922021707395
278.458405 0.0009076288594130667
295.0737 0.12888303699873213
295.152435 0.004208192361978156
END IONS

BEGIN IONS
CHARGE=1+
PRECURSORTYPE=M+H
FORMULA=C21H18O6
ONTOLOGY=
INCHIKEY=OWYIHNQLFJKFDI-UHFFFAOYSA-N
INCHI=InChI=1S/C21H18O6/c1-4-9-26-17-7-5-13(10-18(17)24-2)11-19-20(22)15-12-14(21(23)25-3)6-8-16(15)27-19/h4-8,10-12H,1,9H2,2-3H3/b19-11+
SMILES=C=CCOc1ccc(C=C2Oc3ccc(C(=O)OC)cc3C2=O)cc1OC
IONMODE=positive
INSTRUMENTTYPE=LC-ESI-Orbitrap
INSTRUMENT=Orbitrap
COMMENT=DB#=CCMSLIB00010118370; origin=GNPS
NUM_PEAKS=192
COMPOUND_NAME=methyl 2-[(3-methoxy-4-prop-2-enyloxyphenyl)methylene]-3-oxobenzo[b]furan-5-ca rboxylate
PRECURSOR_MZ=367.118
COLLISION_ENERGY=205060
PARENT_MASS=366.1107235480092
64.031227 0.0010567340319859197
67.054848 0.0010296960610182628
69.033867 0.0016122999592499152
79.054573 0.002285352307980515
89.038116 0.0010972909884374047
91.054489 0.012365365389208374
94.041252 0.010384190254613998
102.046387 0.03097746771376574
103.054008 0.008495716734765874
105.033684 0.004862006565076855
105.069817 0.005310386250290497
107.049133 0.00687279471549295
109.065376 0.0020107881504160953
115.054237 0.0454582324505865
116.062714 0.0014523252976912791
117.070389 0.0022802022182723896
117.091797 0.0013586580411247538
118.041473 0.005619391632778003
119.012787 0.017678970445566447
119.049088 0.00636969532713048
120.056969 0.0018910485647021865
121.028358 0.04551134275070154
121.037804 0.0020970521530271906
121.064919 0.0012218587832526807
122.036186 0.0374388990138222
128.062103 0.009851477850429807
129.069901 0.010456613391134507
130.041351 0.007272892309692919
131.049179 0.007332118341336358
132.056793 0.0016254970641269857
133.028625 0.004775420681859002
133.064697 0.0014732475371305373
134.036316 0.0049656521204528735
135.04393 0.017797744389460083
136.015564 0.011928573405838012
137.024643 0.0016139093622837043
137.059219 0.009829268088563518
143.048996 0.049236788893316535
144.042801 0.0011195007503036944
144.057037 0.006400917745985988
145.02858 0.005525080614997962
145.064514 0.0014812945522994828
147.043777 0.012237256907718761
147.080551 0.0014233560430830755
148.051605 0.015388468047877808
150.031326 0.005267898010198465
151.039093 0.013499672647422927
155.048508 0.001730108261323277
157.064392 0.0054149974474867885
159.044067 0.005412744283239484
160.051422 0.009900403702656995
161.023438 0.002652939960897944
161.059982 0.004558473152904232
163.038437 0.0024237609688863766
163.075256 0.004055695645148519
165.018219 0.024742640360866784
165.054367 0.002190397528986958
165.069351 0.01721835929729601
166.077484 0.0015257140760320618
173.022934 0.022081653384799897
173.05925 0.0014236779236898333
175.075256 0.04466930308342308
178.077927 0.005865308416340977
179.033752 0.11626359704153097
179.085297 0.005590744258776557
181.064957 0.006207467501324539
182.072845 0.006170773112154147
184.075867 0.0017709870983815199
189.05426 0.0055450372126169475
189.071152 0.0015260359566388196
191.034317 0.0056773301419944106
191.084732 0.00821278368142575
192.057602 0.00519933744095905
192.093781 0.0019100395205008977
193.048218 0.0021260214076353943
193.064896 0.014986117289430535
194.072113 0.0020993053172744954
195.043808 0.0014571535067926464
195.082123 0.0011452511988443198
196.035706 0.02055947999544217
197.06012 0.0050561005709518205
197.095245 0.0017313957837503083
198.367294 0.0013522204289895974
199.555328 0.0010634935247278339
202.077652 0.006121525379320201
203.085052 0.002039435524417541
205.047226 0.019522702561075234
205.066238 0.008043474482271138
207.080063 0.0026851280215737256
209.05986 0.007635973634115739
210.067642 0.009717253637411797
210.749741 0.0017803216359774967
211.075394 0.0022808459794859052
217.049515 0.002520968912127238
218.072952 0.0022090666041789117
219.044052 0.004518559957666262
219.08046 0.01245420443667353
220.050873 0.012151636666321181
220.088806 0.004049258033013363
221.059601 0.09090230215447566
222.067184 0.0012015803050269382
223.039398 0.002454661507135127
223.074844 0.0013914898630140514
224.0466 0.0016879419018380026
225.054703 0.013846016180294341
226.06189 0.006776230533465604
227.071411 0.0013715332653950667
229.046478 0.0019493089545253516
231.082794 0.0015447050318307732
233.059326 0.005883655610926173
234.067093 0.002651652438470913
235.038574 0.0019512402381658986
235.075195 0.007022469197635336
237.054062 0.01693027615424776
238.062698 0.001672813513320385
239.069977 0.008124588395174109
241.084686 0.0013650956532599101
242.057144 0.002407345057941728
243.064713 0.0015350486136280386
246.066757 0.001383120967238348
246.429764 0.0013126291143583857
247.040436 0.004171572663581334
247.075317 0.016094995979711223
248.048859 0.0032226686348592833
248.082764 0.010497170347585991
249.054474 0.0934216616635691
250.062241 0.0019010268635116787
251.070023 0.0278452475294054
252.041916 0.013170388786709678
252.078003 0.0419365367320492
252.107376 0.0014217466400492863
253.050797 0.0060397677052037154
254.056122 0.009849224686182502
255.064194 0.014392569450569118
258.06955 0.001996625403718751
261.054016 0.004653427931897789
263.070099 0.030543894536462956
263.10199 0.0020967302724204328
264.076813 0.0015659491518767892
265.04953 0.026256766735055566
266.057312 0.017193574490575656
266.953278 0.0012505061572541266
267.06485 0.019775056956773365
268.07132 0.0014925603735360066
269.080872 0.010688045547393379
270.052765 0.0024913558963055187
275.069855 0.01220056251854837
276.078186 0.002270545800069655
277.048798 0.008681119964258377
278.058685 0.0020146507176971888
279.064911 1.0
280.038971 0.004520491241306809
280.072418 0.09943439139780516
281.043915 0.0043653447888495405
281.080963 0.006536751362037787
282.05188 0.002690278111281851
283.059357 0.02638294393290463
286.04483 0.008080490752048287
289.084564 0.00540437538746378
291.065216 0.00696581821084596
292.072815 0.012515361751957516
293.043732 0.008585843304658064
293.08075 0.006565076855432475
294.052917 0.005849858147216602
295.023407 0.0011175694666631475
295.059723 0.0499063005553728
297.075378 0.08579212564158852
298.079865 0.0014709943728832327
303.064117 0.008377586552085755
305.081482 0.0017397646795260114
307.059753 0.15333780532789656
307.096802 0.051190282295729736
308.067383 0.19064183636748722
309.074463 0.01818206983392892
310.046326 0.005236031830129441
311.055573 0.0073688127305067495
311.091919 0.003774693875448943
312.061829 0.002445005088932393
313.07077 0.0015195983445036633
317.080353 0.01355986432088664
320.068359 0.002086108212397425
321.075409 0.0022930774425427023
325.069763 0.04393927786729635
325.11145 0.0015356923748415542
326.077728 0.15770218447492582
334.083954 0.0013078009052570185
335.090973 0.08879108725475111
337.069733 0.002537062942465129
339.123566 0.012827264059905844
349.107941 0.008207311711110868
352.094177 0.006338794788881729
367.117004 0.5916538933712552
END IONS

BEGIN IONS
CHARGE=1+
PRECURSORTYPE=M+H
FORMULA=C21H14F3NO5
ONTOLOGY=
INCHIKEY=IOIYKTDJCWZSTH-UHFFFAOYSA-N
INCHI=InChI=1S/C21H14F3NO5/c1-28-19(26)16-14(10-5-4-6-11(9-10)21(22,23)24)15-17(30-18(16)25)12-7-2-3-8-13(12)29-20(15)27/h2-9,14H,25H2,1H3
SMILES=COC(=O)C1=C(N)Oc2c(c(=O)oc3ccccc23)C1c1cccc(C(F)(F)F)c1
IONMODE=positive
INSTRUMENTTYPE=LC-ESI-Orbitrap
INSTRUMENT=Orbitrap
COMMENT=DB#=CCMSLIB00010117203; origin=GNPS
NUM_PEAKS=113
COMPOUND_NAME="methyl 2-amino-5-oxo-4-[3-(trifluoromethyl)phenyl]-4H-pyrano[3,2-c]chromene-3- carboxylate "
PRECURSOR_MZ=418.09
COLLISION_ENERGY=205060
PARENT_MASS=417.0827235480092
51.02335 0.001825240992087232
53.03912 0.012468147755236124
57.03381 0.00119987462534527
58.0289 0.007577858112659374
65.038887 0.0137441211794259
68.013428 0.1588189466419333
68.997238 0.008349771176186049
77.038719 0.001409334685531132
89.038406 0.002162034685983204
91.054062 0.01326040406201826
93.033531 0.010668147453854743
95.049133 0.036148813084774065
100.039192 0.17786285941613386
101.019257 0.0056463801835714
105.044571 0.0015295105114291354
111.043503 0.005769193096558074
121.028221 0.24162800194692372
139.038651 0.005555589042375729
140.049225 0.0020079534546594315
141.013977 0.005454626279552328
143.410904 0.001304604655438201
145.025848 0.012435372529991214
151.035095 0.05044521564591304
163.038651 0.21634662475456254
168.043854 0.0028729180197434945
171.041107 0.00688920165578931
173.020294 0.06815551580670001
173.035934 0.002507116367872142
176.03009 0.002354542043456181
178.07663 0.0018629136647825308
179.030045 0.10207222303427761
183.042191 0.004168857960461777
183.059967 0.04973470903887971
188.033127 0.0014131019528006619
190.046631 0.0019013397909317356
191.03334 0.008390834389423925
195.060272 0.006109754057723576
196.037018 0.002237003304646849
198.052078 0.002193679731047255
199.036011 0.009945208864831957
201.05072 0.01732114145184453
202.076889 0.0017585603614165529
203.065918 0.01581385781730562
205.064926 0.0024291339353928734
207.029404 0.009147301657145527
207.06015 0.04119770467939802
210.281784 0.0013931354362721534
212.034637 0.011637465322304783
212.067719 0.008458268473548509
214.048996 0.008882462768097576
215.06662 0.012857306464178563
218.040604 0.0029350779296907375
223.051056 0.014861869378295417
223.076431 0.01557576652587133
224.031845 0.009328883939536868
224.062302 0.0014620764273045503
225.050781 0.0026521561577490427
226.027435 0.00216655540670664
226.058075 0.006552031235166385
227.066147 0.16566407127066912
230.054443 0.001818459911002078
231.061142 0.026531356472391205
232.059174 0.002959565166942682
233.057129 0.002616743845415462
235.053848 0.012664799106705584
239.027466 0.001612390391358793
240.028458 0.053955555287660995
241.043411 0.0012985770278069531
243.026154 0.011452492499370866
243.060822 0.051627384115091525
246.03569 0.002463039340818642
248.031464 0.0025881126141670346
249.05397 0.022826249112808557
250.070206 0.0028612394912079517
251.044708 0.009695062318135172
251.066818 0.030077861879926643
252.055832 0.0029810385903790023
254.053238 0.009623860966741058
255.061295 0.009785100005876938
258.040802 0.0047644629157744525
266.041504 0.002750858560210726
267.063202 0.0017012978989196985
269.062439 0.0017446214725192922
270.047119 0.009045962167595173
271.055481 0.04619988215987981
272.054382 0.05093458366422497
277.049561 0.002266011262622229
279.043915 0.01861934175292453
280.053131 0.00301984144325516
281.057892 0.0015946842351920025
289.065948 0.002542528680205723
291.059509 0.0018101719230091122
295.058167 0.0017020513523736045
297.054932 0.05084040198248673
298.042969 0.05780306535003187
299.050598 1.0
302.036194 0.0019100045056516543
317.061218 0.14959969017993976
319.056763 0.5011369612619441
330.031311 0.0025553373889221245
344.056488 0.0022083720733984216
346.049652 0.002171452854157029
354.117096 0.0013219340848780385
358.070343 0.0021560070583519562
359.053101 0.0021130602114793153
364.061584 0.03200933980901462
366.055145 0.013210299407333512
384.067139 0.013749772080330194
386.062408 0.5678967045452833
396.082764 0.0023816663677967967
416.091675 0.014153623131623798
418.088379 0.1681700574583604
427.084259 0.0019454168179852353
END IONS

BEGIN IONS
CHARGE=1+
PRECURSORTYPE=M+H
FORMULA=C18H17NO4
ONTOLOGY=
INCHIKEY=QCTRFEAQMSEZIE-UHFFFAOYSA-N
INCHI=InChI=1S/C18H17NO4/c1-10(2)9-14(18(22)23)19-16(20)12-7-3-5-11-6-4-8-13(15(11)12)17(19)21/h3-8,10,14H,9H2,1-2H3,(H,22,23)
SMILES=CC(C)CC(C(=O)O)N1C(=O)c2cccc3cccc(c23)C1=O
IONMODE=positive
INSTRUMENTTYPE=LC-ESI-Orbitrap
INSTRUMENT=Orbitrap
COMMENT=DB#=CCMSLIB00010121114; origin=GNPS
NUM_PEAKS=17
COMPOUND_NAME="2-(1,3-Dioxo-1H-benzo[de]isoquinolin-2(3H)-yl)-4-methylpentanoic acid "
PRECURSOR_MZ=312.123
COLLISION_ENERGY=205060
PARENT_MASS=311.1157235480092
53.002739 0.0031537310895385657
64.735283 0.0014285661867679056
69.07029 0.15169892967613866
82.393204 0.0021563032425272414
84.960152 0.0022731080976953364
146.467316 0.0017153802028612908
155.049149 0.057185455532819715
170.060532 0.017062682010706907
180.044296 0.5112854282579687
198.054901 1.0
210.05481 0.25306230529976037
224.072403 0.0019593861568511857
228.065308 0.21320861102515523
239.083054 0.002283504341349041
241.454575 0.002033994493660126
266.11731 0.630055173476614
294.112061 0.12797470165838432
END IONS

BEGIN IONS
CHARGE=1+
PRECURSORTYPE=M+H
FORMULA=C20H20N4O4S
ONTOLOGY=
INCHIKEY=FHZLPXXJDOAZFG-UHFFFAOYSA-N
INCHI=InChI=1S/C20H20N4O4S/c1-11-4-6-13(7-5-11)22-20-23-16(17(21)25)19(29-20)24-18(26)12-8-14(27-2)10-15(9-12)28-3/h4-10H,1-3H3,(H2,21,25)(H,22,23)(H,24,26)
SMILES=COc1cc(OC)cc(C(O)=Nc2sc(Nc3ccc(C)cc3)nc2C(N)=O)c1
IONMODE=positive
INSTRUMENTTYPE=LC-ESI-Orbitrap
INSTRUMENT=Orbitrap
COMMENT=DB#=CCMSLIB00010121009; origin=GNPS
NUM_PEAKS=75
COMPOUND_NAME="5-[(3,5-dimethoxyphenyl)carbonylamino]-2-[(4-methylphenyl)amino]-1,3-thiazole- 4-carboxamide "
PRECURSOR_MZ=413.128
COLLISION_ENERGY=205060
PARENT_MASS=412.1207235480092
51.023529 0.005058321981649217
51.063938 0.0009900630213192417
53.039082 0.03170209488334738
55.01844 0.001836116875901139
55.054722 0.0018451174488222232
65.038857 0.005732672598967358
66.046944 0.00811228560894934
66.735367 0.0013459318275836404
68.025948 0.010321580085193885
68.997543 0.0013265459782151518
69.03392 0.0023221478136396757
69.974983 0.00970711789538911
71.990646 0.001161420082701418
73.945518 0.001161420082701418
77.038933 0.0073520833729993195
79.018181 0.01187833302465984
79.054527 0.0401356317104031
81.033684 0.006808933414800058
81.070122 0.008190867534068034
87.001083 0.0012718501889254874
91.05426 0.002273683190218454
92.025757 0.01654201450130768
92.368217 0.001176997997372525
93.033737 0.0068234728018264235
94.041458 0.024650838351441218
95.049187 0.013810686795640261
98.036453 0.0015505217735975116
102.002167 0.0011015316551880514
105.033203 0.004934391016043521
105.044762 0.004531442289884222
107.012901 0.01907394489918493
107.049049 0.006839743068260691
109.06485 0.05225282609335325
111.043503 0.002337725728310783
117.036949 0.0013421238928862588
118.064934 0.012870819277150142
122.036186 0.35446437071282805
125.0597 0.07133092510311714
125.070641 0.0013950888027680223
131.060532 0.006182701245021558
133.076248 0.001616295191097741
135.055283 0.024575025833375164
137.059784 0.01580535222530511
150.037292 0.01168101277215915
155.070206 0.6937056570331689
157.958511 0.001318237757057228
160.0867 0.007242691794419991
161.071304 0.0022227953356261715
162.036606 0.0014560157579261296
163.063263 0.009239434279374322
165.054626 1.0
166.058441 0.0013601250387284267
171.079285 0.0016848380156506116
176.070419 0.013102064766045685
177.048065 0.006627537252852056
178.032486 0.0018243468959274138
178.086212 0.013400468375967778
187.032822 0.013742490146968971
189.035477 0.015384748529185224
203.080765 0.007937466788751362
204.058685 0.01030981010522016
220.042557 0.025803950212984712
225.205887 0.0013237765711625105
231.069931 0.007238883859722609
232.055161 0.0017315717596639326
233.037537 0.0014961721601894275
247.070633 0.005083938996886148
250.064224 0.06614036393470431
354.292358 0.001116417218095998
381.073547 0.001194652967333113
392.600189 0.0012064229473068382
395.116058 0.006753545273747233
396.100739 0.6041426867748697
413.126953 0.031235795970858914
413.272675 0.004598946586792351
END IONS

BEGIN IONS
CHARGE=1+
PRECURSORTYPE=M+H
FORMULA=C18H16O5
ONTOLOGY=
INCHIKEY=PRWZDYJHEPXPGA-UHFFFAOYSA-N
INCHI=InChI=1S/C18H16O5/c1-20-12-6-4-5-11(9-12)17-18(22-3)16(19)14-10-13(21-2)7-8-15(14)23-17/h4-10H,1-3H3
SMILES=COc1cccc(-c2oc3ccc(OC)cc3c(=O)c2OC)c1
IONMODE=positive
INSTRUMENTTYPE=LC-ESI-Orbitrap
INSTRUMENT=Orbitrap
COMMENT=DB#=CCMSLIB00010115193; origin=GNPS
NUM_PEAKS=102
COMPOUND_NAME="3,6-dimethoxy-2-(3-methoxyphenyl)chromen-4-one "
PRECURSOR_MZ=313.107
COLLISION_ENERGY=205060
PARENT_MASS=312.09972354800925
50.775299 0.00040260833658590665
53.03915 0.0007354818707216507
71.071426 0.0003531591814147484
76.230797 0.00045668137749308027
79.018204 0.0017783398485204465
79.054611 0.0004736807631239881
91.054642 0.0023504466250865723
92.025963 0.0006769963217121081
92.365784 0.0005027286738727416
94.505951 0.00044509524094883614
94.891533 0.0003734018926119184
95.049713 0.0029538042636771105
105.033653 0.011540115670068685
106.040543 0.0004516281309387207
107.012848 0.0029479055065881653
107.049042 0.0031864154411784134
110.036293 0.0006470731754490374
119.049057 0.0031469043375641622
120.057617 0.0005750000079266613
121.064873 0.0034082496621392747
122.03624 0.000665000641002674
123.044769 0.0017418540872877596
125.059776 0.0070515149223625805
126.346893 0.0005210590780405167
133.028397 0.004902976873490169
133.065475 0.000652331194085992
135.044189 0.04814213460126093
135.054062 0.0016623166470772445
135.080612 0.0009376678800799726
137.059799 0.001002815127324903
147.044434 0.0018563150759072936
148.05217 0.007179933440353829
149.024323 0.0005799871989705063
149.060394 0.003016461218175644
151.039108 0.020757118485301696
153.056213 0.0004325413911755545
163.039108 0.003442218708421359
165.069794 0.0005741809195962814
168.042099 0.006375301358450069
168.056366 0.0009049043468647782
168.98642 0.00045885130101348175
169.065369 0.00058366979368169
171.080765 0.001988287380364223
177.018738 0.00046408289744623055
177.055283 0.0004945443961199944
181.049454 0.000531680804131249
181.064484 0.0030003733985898362
182.072403 0.0022695055052776238
183.080719 0.0008815239989181693
184.051376 0.0019793335559139817
192.042267 0.0006161261687729919
195.080612 0.0017173309790092497
196.052261 0.0008163007878361473
197.060379 0.0035845716363556426
199.075226 0.007715891338790893
208.068893 0.0020513274568237402
209.060318 0.0016554039379019015
210.067215 0.0031185962485331714
211.075424 0.03661879042531188
213.091537 0.0016656359364805983
223.077728 0.0006471557448371806
224.047073 0.003775462153415984
224.083038 0.0008511318585304456
225.055023 0.0015541045097523828
225.09137 0.00446075835002424
226.062378 0.005065341318334822
227.070282 0.028237512020781803
234.601227 0.0005176506136979682
237.054428 0.0023960414412192094
238.06105 0.0008750967977451079
239.069809 0.010838807617711712
240.040878 0.0008587513616682938
240.077942 0.005512507399538288
241.085709 0.011566309982763211
242.093445 0.0005175977692895566
244.075287 0.0006134872511279375
244.746567 0.0004979066216051827
251.070175 0.003458194233639292
252.041397 0.003985135554891125
252.077271 0.0026215450457891514
253.085388 0.0023037684985814976
254.057236 0.016127594911463948
255.065186 0.03619804324553869
256.074127 0.0005247614894048546
257.116547 0.0016205332339012946
266.056976 0.0009159323143451748
267.065094 0.15907137947897315
268.040558 0.000754601638240074
268.072784 0.004900744197234779
269.080658 0.11815946307544523
270.088379 0.07577617999185984
279.067078 0.0015713119702414112
281.081085 0.007608650217470594
282.052002 0.02569345669437722
283.059906 0.03700680709962513
284.06839 0.0009224288738042763
297.075653 0.8955483764665249
298.083313 0.20675324588852007
300.062439 0.11208933157002111
311.092133 0.0005193911764000255
312.093353 0.0005641272708959738
313.10675 1.0
END IONS

BEGIN IONS
CHARGE=1+
PRECURSORTYPE=M+H
FORMULA=C14H12FN5O2S
ONTOLOGY=
INCHIKEY=NZFBLPZLGWFCEN-UHFFFAOYSA-N
INCHI=InChI=1S/C14H12FN5O2S/c1-20-12-11(13(22)17-7-16-12)19-14(20)23-6-10(21)18-9-4-2-3-8(15)5-9/h2-5,7H,6H2,1H3,(H,18,21)(H,16,17,22)
SMILES=Cn1c(SCC(O)=Nc2cccc(F)c2)nc2c(O)ncnc21
IONMODE=positive
INSTRUMENTTYPE=LC-ESI-Orbitrap
INSTRUMENT=Orbitrap
COMMENT=DB#=CCMSLIB00010122679; origin=GNPS
NUM_PEAKS=61
COMPOUND_NAME=N-(3-fluorophenyl)-2-(9-methyl-6-oxohydropurin-8-ylthio)acetamide
PRECURSOR_MZ=334.077
COLLISION_ENERGY=205060
PARENT_MASS=333.0697235480092
56.54929 0.0012284062330598334
57.045219 0.002764114351558966
57.71991 0.0017320287493534441
58.995449 0.0026407128121648275
62.064301 0.000996026710824118
71.786293 0.0010593300979159163
84.985657 0.008354444478722649
96.036873 0.002087809810983298
97.045013 0.012526458211551105
104.049301 0.0018766649692277427
106.040131 0.002292944837508619
107.024109 0.002430369279106637
108.055702 0.0026286931817043595
110.034843 0.001397081713855068
111.042297 0.0021054386023253175
122.040207 0.0017668856776888013
122.801163 0.0012364193200334788
124.055946 0.07626495592601837
125.016418 0.0019744246303062163
126.012123 0.0014050948008287134
133.051514 0.002687589370960653
134.034454 0.001509264931486103
134.09462 0.0012560513831189099
135.047745 0.00881559763405594
137.045593 0.03389175200938172
139.991135 0.013617840657361603
140.027634 0.0021274745915028427
149.045959 0.03880056908943687
150.035126 0.0069818026801372
150.053619 0.05825193706361229
150.066986 0.002736869855848572
150.996628 0.010677037738033756
151.061386 0.1255254080965032
152.026932 0.003841874549514267
153.011078 0.0015757735533673597
153.022873 0.004850321545147535
154.007004 0.002411137870369888
161.045929 0.009489097594190832
162.053391 0.025847013342190465
163.061295 0.05062908742558346
168.022324 0.02783185498556242
170.038376 0.0052529791655732145
177.022476 0.0024435908726131517
179.056778 0.002301759233179629
181.017731 0.3563844470789694
182.026047 0.008343626811308229
183.033386 0.005467329242118227
186.032639 0.002128275900200207
195.033447 0.8744068813185695
209.341904 0.0016715299427024215
209.36232 0.0026807782470330546
213.043625 0.007759072116580799
220.64325 0.0013902705899274696
222.04306 0.002061366623970268
223.028259 1.0
236.060501 0.010658206983645691
239.036118 0.0011506792894154733
316.064789 0.002339420741955762
323.213531 0.0014423556552561644
334.031647 0.001452372013973221
334.076263 0.04003538579207562
END IONS

BEGIN IONS
CHARGE=1+
PRECURSORTYPE=M+H
FORMULA=C24H22N2OS
ONTOLOGY=
INCHIKEY=UUNUEWJUIFKEHU-UHFFFAOYSA-N
INCHI=InChI=1S/C24H22N2OS/c1-17-12-14-18(15-13-17)25-23(27)16-22-24(28-19-8-4-3-5-9-19)20-10-6-7-11-21(20)26(22)2/h3-15H,16H2,1-2H3,(H,25,27)
SMILES=Cc1ccc(NC(=O)Cc2c(Sc3ccccc3)c3ccccc3n2C)cc1
IONMODE=positive
INSTRUMENTTYPE=LC-ESI-Orbitrap
INSTRUMENT=Orbitrap
COMMENT=DB#=CCMSLIB00010118048; origin=GNPS
NUM_PEAKS=51
COMPOUND_NAME=N-(4-methylphenyl)-2-(1-methyl-3-phenylthioindol-2-yl)acetamide
PRECURSOR_MZ=387.153
COLLISION_ENERGY=205060
PARENT_MASS=386.14572354800924
53.007992 0.0011105034828540914
55.020531 0.0011331270171026117
65.304573 0.0011459990279681493
91.054359 0.038035231863921784
104.049667 0.004784877493562044
106.065163 0.0016019802613564291
108.081093 0.0015036849056559616
115.054573 0.0019062277909054953
117.057266 0.0068522004507544166
118.065102 0.16453589379732902
121.010567 0.016554186094951753
130.065155 0.04274950832819103
132.080597 0.004576975015036849
135.02626 0.04470878440629995
143.072937 0.006888086056803794
144.080811 0.413015631301922
145.088608 0.22345264777263504
146.059799 0.014479842040923632
147.026306 0.019696516989884158
154.429779 0.001186565365241358
174.036316 0.0015524425225708761
176.052368 0.002521743946839375
178.062622 0.0015926187989087656
178.077072 0.010508241597502362
197.041931 0.018499029918453862
204.080948 0.016507768843648754
205.088455 0.0026418827149177243
207.104202 0.0015774064224313123
208.111267 0.0019347022391838053
211.057434 0.049017007436901794
217.090683 0.00156726483811301
218.096268 0.06775358446496511
218.119751 0.0024959999251083003
219.104111 0.1263563393873391
220.111893 0.021065630872854957
221.042053 0.014198608106558406
228.553741 0.0013562418721052602
234.049347 0.0016121218456747314
235.058548 0.0026294007649875066
236.052582 0.12494743928896572
237.060349 0.06922021358176575
247.096252 0.001271988710076288
250.068283 0.11496773025882104
251.075577 0.005641061246587942
252.083984 1.0
253.087708 0.0025712816856249283
278.14032 0.025313784519417622
280.079071 0.014342540591691233
291.086578 0.001223621154096693
387.148529 0.007466546423882339
387.381378 0.009392667322489119
END IONS

BEGIN IONS
CHARGE=1+
PRECURSORTYPE=M+H
FORMULA=C10H12O4
ONTOLOGY=
INCHIKEY=OJOBTAOGJIWAGB-UHFFFAOYSA-N
INCHI=InChI=1S/C10H12O4/c1-6(11)7-4-8(13-2)10(12)9(5-7)14-3/h4-5,12H,1-3H3
SMILES=COc1cc(C(C)=O)cc(OC)c1O
IONMODE=positive
INSTRUMENTTYPE=LC-ESI-Orbitrap
INSTRUMENT=Orbitrap
COMMENT=DB#=CCMSLIB00010118783; origin=GNPS
NUM_PEAKS=28
COMPOUND_NAME=Acetosyringone
PRECURSOR_MZ=197.081
COLLISION_ENERGY=205060
PARENT_MASS=196.07372354800924
53.039021 0.006225017550394705
54.79319 0.004954703267000005
56.21801 0.004608470990510848
56.965141 0.009591827963151334
66.73954 0.0057426801721132585
67.291992 0.005530165188613018
73.141586 0.005009622869477595
73.816406 0.005394060086820728
73.949257 0.005924153641169644
82.393539 0.006728845207906512
84.960007 0.006817194133631332
92.371162 0.005589860408697355
95.049393 0.06065750703209693
96.465668 0.0053128745875060295
109.064941 0.005043052192724824
111.887672 0.005243628132208198
123.044083 0.08304321456372345
125.023193 0.04357034723515619
132.958298 0.00684346003046844
139.035919 0.01060664670458507
140.046875 1.0
150.968689 0.010355926780230854
154.141953 0.005035888766314704
155.070297 0.84086209449037
155.974518 0.011208374523035192
173.080704 0.04120641651981643
185.397232 0.005105135221612535
197.080948 0.3002072618041328
END IONS

BEGIN IONS
CHARGE=1+
PRECURSORTYPE=M+H
FORMULA=C26H26N2O3
ONTOLOGY=
INCHIKEY=NQRDCKYGFHPVJS-UHFFFAOYSA-N
INCHI=InChI=1S/C26H26N2O3/c1-18-21(14-15-27-26(29)22-10-6-7-11-25(22)30-2)23-16-20(12-13-24(23)28-18)31-17-19-8-4-3-5-9-19/h3-13,16,28H,14-15,17H2,1-2H3,(H,27,29)
SMILES=COc1ccccc1C(O)=NCCc1c(C)[nH]c2ccc(OCc3ccccc3)cc12
IONMODE=positive
INSTRUMENTTYPE=LC-ESI-Orbitrap
INSTRUMENT=Orbitrap
COMMENT=DB#=CCMSLIB00010117814; origin=GNPS
NUM_PEAKS=94
COMPOUND_NAME=(2-methoxyphenyl)-N-{2-[2-methyl-5-(phenylmethoxy)indol-3-yl]ethyl}carboxamide
PRECURSOR_MZ=415.202
COLLISION_ENERGY=205060
PARENT_MASS=414.1947235480092
50.015591 0.001401294351153024
51.02346 0.004319924994708883
53.03899 0.010868162948379577
53.296341 0.0006883396969591078
63.023289 0.001266571415573224
63.334869 0.0007032844924230986
65.038879 0.00816381429860888
69.992188 0.0008399854156378384
74.916512 0.0007024053868075697
74.926422 0.0007887775135332815
77.038612 0.005728032414382256
79.05439 0.03328052106348044
80.948067 0.001457776886950754
81.033569 0.005077933811698654
82.411636 0.0010925085036985072
90.976562 0.000987455382642807
91.054237 0.34639596367447684
92.025627 0.013893385147818313
92.393539 0.0009035007963597995
95.04908 0.015646541521586767
103.054092 0.011901551599433768
104.062271 0.0015907416112994962
105.033241 0.006095498561673325
105.044289 0.005189580224870821
105.069656 0.0014160193702131326
106.064232 0.0008217439741156142
107.049026 0.01357317092736192
115.054008 0.011107279675803432
117.069641 0.06890188060471038
118.0644 0.0010870140936014518
119.085281 0.026649427405546145
120.020653 0.0014412936566595878
120.080223 0.0009663568478701139
122.059624 0.0015990931146470204
129.06868 0.0009896531466816291
130.064651 0.009465989491611025
132.020386 0.00081141448313315
132.080154 0.003619277819132371
132.548874 0.0008683365717386445
133.06366 0.0009852576186039847
134.059769 0.013364383343673814
135.043793 1.0
135.452835 0.001039981943170657
136.046906 0.0031535716193059507
138.031082 0.003775319065888746
141.014008 0.008348646254273827
141.069244 0.0018993076823501306
144.05661 0.005141229416016733
144.08046 0.029545421079502136
144.092194 0.0016103017112450136
145.064667 0.006154838190721524
145.088333 0.0892221871312564
146.059464 0.010845745755183591
146.095795 0.001708321987376483
147.067551 0.001582609884355854
148.075348 0.005216832498952216
152.070312 0.021484681914314015
156.079163 0.0025219342345484553
158.059525 0.0030458811814036636
158.096039 0.004304101093629363
159.067825 0.006478129280832267
160.075378 0.06434965195109799
161.083389 0.0010234987128794908
162.091568 0.003111814102568329
163.062424 0.001520193385653304
169.064346 0.006423844509073359
171.067413 0.003385435725401691
172.075256 0.05037407042822773
173.083191 0.4457113821540241
174.090973 0.03605102241081968
178.085831 0.054736412268885884
178.103806 0.0009742687984098737
186.090866 0.04002172269975972
207.104309 0.003723671610976425
208.111343 0.0013382185232388272
217.097153 0.00657746821538703
220.074326 0.001729640298553058
221.119293 0.0017149152794929494
225.090866 0.008033486891106726
231.103287 0.0011448152878224753
234.089691 0.009343793811052511
235.098358 0.001277560235767335
236.142624 0.011379362863809618
238.121628 0.0018008478534108968
240.062317 0.0012817359874410972
248.105667 0.01026905247139665
249.114212 0.018850441937381748
257.088898 0.0008720727706046423
264.137604 0.7862788755975446
323.138092 0.004228278234289998
397.09494 0.002998849030972869
397.18927 0.0032159881180085005
398.173004 0.007469760415148836
415.200317 0.08431809645502858
END IONS

BEGIN IONS
CHARGE=1+
PRECURSORTYPE=M+H
FORMULA=C27H30O15
ONTOLOGY=
INCHIKEY=HGUVPEBGCAVWID-UHFFFAOYSA-N
INCHI=InChI=1S/C27H30O15/c28-7-15-19(32)22(35)24(37)26(40-15)18-14(41-27-25(38)23(36)20(33)16(8-29)42-27)6-13-17(21(18)34)11(31)5-12(39-13)9-1-3-10(30)4-2-9/h1-6,15-16,19-20,22-30,32-38H,7-8H2/t15-,16-,19-,20-,22+,23+,24-,25-,26+,27-/m1/s1
SMILES=O=c1cc(-c2ccc(O)cc2)oc2cc(OC3OC(CO)C(O)C(O)C3O)c(C3OC(CO)C(O)C(O)C3O)c(O)c12
IONMODE=positive
INSTRUMENTTYPE=LC-ESI-Orbitrap
INSTRUMENT=Orbitrap
COMMENT=DB#=CCMSLIB00010125140; origin=GNPS
NUM_PEAKS=101
COMPOUND_NAME=Saponarin
PRECURSOR_MZ=595.166
COLLISION_ENERGY=205060
PARENT_MASS=594.1587235480093
51.6432 0.002296118395504816
53.038929 0.002747541122774936
55.018211 0.003246572600189173
57.033699 0.00963302831229275
61.028629 0.00912252484689198
68.997421 0.004225133175440539
69.033783 0.022230418320305936
73.954277 0.002266864826139154
81.033447 0.013801375147199946
81.650284 0.002322503967873845
85.028618 0.04303200053688904
91.053917 0.003506413128084172
97.02816 0.017545258426605377
109.028572 0.015229064052124125
119.049431 0.028384566275682196
121.019478 0.0030756399791898137
121.028442 0.0690063021366004
127.037529 0.0024022342843802572
128.77037 0.002185987310834088
140.190231 0.002158454539666406
141.017944 0.008633818158665624
142.130661 0.0019995675060529077
145.028534 0.0256507915384911
147.043716 0.002773353095744638
149.022888 0.00878983719528249
151.566238 0.0021010945997337353
157.978592 0.0026878867852449585
163.038864 0.02999465978959227
165.018097 0.08717219511327727
167.033661 0.030413387351100767
177.018143 0.012428178185211804
179.033432 0.0025456341342119347
181.048508 0.004421304170010273
183.028732 0.054423111008118155
183.371277 0.002223844871189651
187.039474 0.017002059795442982
189.017899 0.0026844451888489982
191.033264 0.00943284212192773
195.028442 0.02562956836071601
203.034149 0.0027532771167682033
205.049515 0.01231919429933973
207.028534 0.004460882528563816
215.033081 0.009638764306286018
229.047852 0.015517010950586132
233.04393 0.015023715467165162
239.069931 0.013686655267334605
242.058105 0.0028335810326739425
243.028275 0.011928573108398241
255.064301 0.0035259155076612803
256.071838 0.003108908744350763
261.038727 0.012180956844101993
267.06488 0.12000158313434214
269.044739 0.004181539621091709
270.051971 0.04465012444238969
271.027435 0.002465903817705522
271.059937 0.07577362784985692
277.084198 0.003763385658982538
279.064056 0.019326858160914135
280.072693 0.0023787167090078623
281.045929 0.005018994744108704
281.080078 0.11950312525632723
283.059753 1.0
284.067474 0.10509774994163626
285.076843 0.010052903072599902
291.066498 0.0028966769665998804
293.081055 0.012598537206811837
294.052002 0.010481955423296281
295.059814 0.13582661696236673
295.096558 0.036085711811042594
297.039429 0.008967653009073769
297.075684 0.034636226128944
305.080383 0.043591833550631905
307.060394 0.024146240314057144
308.0672 0.028476915778973797
309.04007 0.019227625464830613
309.075043 0.30448548994279495
311.056152 0.0027452467251776295
313.070038 0.6943024945264278
320.063812 0.003270090175561568
321.075226 0.04140584623979782
323.054504 0.008445103956287137
323.090942 0.16333128175948175
325.070801 0.009261335901529043
333.075195 0.05099642819654039
335.055908 0.003949805463763718
337.070038 0.2854150307133798
349.070129 0.09668534115111074
351.085632 0.010646578450903046
354.986328 0.0022989863925014496
361.069885 0.07185881194945212
367.080658 0.29304791792022034
379.080688 0.15600412303248237
397.091431 0.2141808685097945
415.101807 0.4172080966996811
433.112518 0.12334738843061484
475.125244 0.028236577630655905
499.124512 0.015220460061134224
529.13385 0.013142309437373557
559.144653 0.005144039413161927
577.153381 0.03245540121270385
595.170837 0.009006084168828659
END IONS

BEGIN IONS
CHARGE=1+
PRECURSORTYPE=M+H
FORMULA=C23H32O5
ONTOLOGY=
INCHIKEY=WFZVFCIUAYURKP-UHFFFAOYSA-N
INCHI=InChI=1S/C23H32O5/c1-20-8-5-16(24)11-15(20)3-4-17-18(20)6-9-21(2)19(17)7-10-22(21)23(28-14-26-22)12-25-13-27-23/h11,17-19H,3-10,12-14H2,1-2H3/t17?,18?,19?,20?,21?,22-,23?/m1/s1
SMILES=CC12CCC(=O)C=C1CCC1C2CCC2(C)C1CCC21OCOC12COCO2
IONMODE=positive
INSTRUMENTTYPE=LC-ESI-Orbitrap
INSTRUMENT=Orbitrap
COMMENT=DB#=CCMSLIB00010120569; origin=GNPS
NUM_PEAKS=183
COMPOUND_NAME="(24R)-12,25-dimethyldispiro[1,3-dioxolane-4,4'-1,3-dioxolane-5',14''-tetracycl o[8.7.0.0<2,7>.0<11,15>]heptadecane]-16-en-15-one "
PRECURSOR_MZ=389.232
COLLISION_ENERGY=205060
PARENT_MASS=388.22472354800925
53.039051 0.0012145003385223747
55.01836 0.0038557639819231503
55.05476 0.0040565100427949015
57.034 0.001765712231561461
65.038963 0.0028473416049596915
66.046753 0.0008161540381843002
66.740723 0.0008383880640497769
67.054588 0.026969340184754623
69.033752 0.004759414510383823
69.070267 0.015510019227900258
71.049469 0.0010830156675768932
74.653938 0.0009081293250378912
77.03878 0.0012906398803350864
79.054497 0.08250103252256807
81.033737 0.0031416625228911825
81.070137 0.0919119438734275
83.049362 0.0463141157058706
83.085732 0.0010280970904990969
85.064934 0.0015444916720509978
87.044067 0.0032674953791082696
89.023422 0.014371605112183723
91.048286 0.001475123644110985
91.054314 0.029376906621036973
93.069977 0.040569259310485
94.04126 0.0010551831459898935
95.049019 0.007215981113981214
95.078659 0.0011301496696514291
95.085617 0.03381827325543142
97.064857 0.6725925055443769
99.043907 0.003463282772340957
103.053833 0.0011509974013382432
105.069839 0.05551830926708866
107.048828 0.005951787461054465
107.085457 0.03975369178137629
109.064796 0.7524343059182285
109.101578 0.00854607705940132
111.043938 0.001919910799434264
111.080193 0.0030292127373988792
111.831467 0.0008259114164418115
115.038963 0.0011158601758098278
117.069748 0.014903835438776504
119.085587 0.03929050956868229
121.064774 0.02704990520413768
121.101143 0.013893173663524435
123.080338 0.07958101711124232
125.095947 0.004095912788873049
128.062057 0.0033917819841260783
129.069641 0.01175113588146289
130.077667 0.001251290453263811
131.08548 0.040757848637790015
133.064438 0.004615613148850992
133.101089 0.038887524514746384
135.080429 0.013427698733534957
135.116562 0.00852858842514742
137.095871 0.010459482939997242
141.070129 0.006854958118453293
142.077408 0.004898150566263849
143.085495 0.034135308070290235
144.093948 0.0012897867762251402
145.065033 0.0030267600630827832
145.101089 0.05487186962777681
145.113968 0.0018121530865466654
147.080246 0.011552575899872877
147.116669 0.027351104273955616
149.096069 0.011687899539313117
149.132401 0.002938890339758309
151.075516 0.003088183558998921
151.111435 0.00302665342506904
153.070297 0.0009568095783117048
153.091949 0.0010126345785063191
154.077103 0.0017562747673451795
155.08522 0.015763017915506224
156.092972 0.003376959300215761
157.101044 0.03206530426651228
158.108795 0.0009464123719717337
159.080139 0.005238005916063726
159.116669 0.043276691841413494
161.096085 0.010483636450110098
161.132416 0.021354368890108354
163.075958 0.006751039374060452
163.111679 0.026877738130949135
163.145493 0.0009677399747203924
165.09079 0.003657097362319394
167.085144 0.0064139566126179
168.093552 0.003942034135041475
169.101105 0.03425922144225994
170.108398 0.001480988734866866
171.080414 0.0013157531325716323
171.116608 0.03028178348665569
172.124344 0.002934571500201706
173.096588 0.01076500084937178
173.132309 0.05018918116828129
175.11171 0.010140635278904794
175.1483 0.010717227019214784
177.127167 0.010503844353714452
179.085327 0.001500023620320044
181.100601 0.011797256822406866
182.108047 0.005815983950552379
183.116837 0.02198555929345491
185.095947 0.004370718950289517
185.132385 0.026967154105472887
186.139954 0.0010194060923790183
187.111771 0.00962642677663463
187.147995 0.019854558545815797
189.127457 0.009894621381199014
189.164261 0.001021592171660756
191.105759 0.0010384409778321964
191.143051 0.0017579809755650722
193.101288 0.00455568258512726
194.108826 0.0032213744381642947
195.11676 0.014200397781118866
196.124771 0.0014621138064343031
197.097549 0.0015483306405457563
197.132385 0.02659136174504152
198.139908 0.0010636608680824854
199.112 0.004940059305664963
199.14743 0.01143714024999576
201.126953 0.00712907113278043
201.163452 0.003698632868672407
203.142776 0.011030262908558222
205.100006 0.001456995181774625
205.120972 0.0008379081929879321
207.116425 0.005095804124737044
208.123062 0.0011407068330120153
209.132294 0.018115399179676417
210.138748 0.0011694990967227046
211.11171 0.0011174597460159772
211.147781 0.01896407781205242
213.127151 0.0051565877925707215
213.163895 0.010366334634992475
215.142746 0.012159719431120321
217.158676 0.002989809991320732
218.110413 0.0010503311163645736
219.115555 0.0018913318117510613
220.124512 0.0011617678407263158
221.131699 0.004492712838011845
223.14743 0.009081613164420141
225.126862 0.0017392126851462524
225.163086 0.010397366296991773
227.142792 0.004666586119420286
227.177902 0.0013155931755510172
229.158432 0.0045003374559944905
233.131592 0.002997487928310249
233.153656 0.005047603742525075
235.147354 0.006897560004943739
236.155746 0.0010486782271515525
237.126801 0.0017716839603310855
237.163025 0.0047353143192778386
239.142609 0.003664935256329526
239.180573 0.0010703257439414412
241.158478 0.0031520064102242822
241.194672 0.0009307365839514695
243.174377 0.003602072147227854
245.153244 0.007533975670963717
249.163391 0.003778078188911161
251.182541 0.008219658099333097
253.158188 0.005927740588955351
253.194672 0.009528106527963313
254.166107 0.0034063913920089096
257.153076 0.0017184715914731817
259.168335 0.0013803757689000683
260.153442 0.0009242849841200002
263.162292 0.007343626816431937
265.161163 0.0015949314525515758
265.194458 0.00748033675005084
267.174164 0.0018391858230305904
269.189453 0.03203022035999074
271.2052 0.01219725601195796
275.178558 0.00188061469136986
277.180084 0.004570025397975733
281.189392 0.0035127628107178457
283.203735 0.009681558629739913
293.18927 0.02292855924898686
295.205597 0.004704176019264797
299.199615 0.0058934564675368825
301.215637 0.07331112845519161
311.199768 0.04152585561276922
313.215424 0.0015464644753052487
323.199951 0.001938465813825597
329.210114 0.03979927953225155
341.210938 0.03540931242048136
359.220978 0.05255398576105258
389.231598 1.0
END IONS

BEGIN IONS
CHARGE=1+
PRECURSORTYPE=M+H
FORMULA=C14H15N5OS
ONTOLOGY=
INCHIKEY=KKSYXUAEBWBHOR-UHFFFAOYSA-N
INCHI=InChI=1S/C14H15N5OS/c1-9-2-4-10(5-3-9)20-7-6-19-13-11(18-14(19)21)12(15)16-8-17-13/h2-5,8H,6-7H2,1H3,(H,18,21)(H2,15,16,17)
SMILES=Cc1ccc(OCCn2c(S)nc3c(N)ncnc32)cc1
IONMODE=positive
INSTRUMENTTYPE=LC-ESI-Orbitrap
INSTRUMENT=Orbitrap
COMMENT=DB#=CCMSLIB00010116239; origin=GNPS
NUM_PEAKS=76
COMPOUND_NAME=6-amino-9-[2-(4-methylphenoxy)ethyl]purine-8-thiol
PRECURSOR_MZ=302.107
COLLISION_ENERGY=205060
PARENT_MASS=301.09972354800925
58.99519 0.0035967912310859635
59.990589 0.0016180903207549137
65.038757 0.004715881658515966
67.054466 0.001546456113846493
67.770973 0.0007400722862334356
79.054588 0.008199566247114948
81.04496 0.0017859760626424506
82.039932 0.0007558185050894662
83.047951 0.0032953952955177166
84.985672 0.0012960690562625707
91.048286 0.0012335277362991817
91.054291 0.028854169831619692
94.040154 0.001642264093364876
98.005203 0.000719668735039706
99.001266 0.0007644678365737647
105.069939 0.007913029419481266
106.040527 0.0010989086539666389
107.04863 0.003099565559603985
107.085297 0.02725382172929411
108.042809 0.005860920080398862
108.055763 0.007412255304313421
109.050888 0.003581488567690666
109.063553 0.014634447093702643
110.058517 0.015285142954598329
111.996407 0.000745838507222968
113.016312 0.0011931641893724555
115.054001 0.006580367037708202
117.069778 0.006351270642239476
119.034866 0.001569742775534989
119.060753 0.0028442993919519967
120.055992 0.001416716141582016
121.050232 0.0014537530225532428
123.001007 0.0011135459841708363
125.003807 0.001316694385186667
125.016861 0.004582593242565622
126.011841 0.0026866154256613246
133.050888 0.003140594439721811
134.05838 0.0033009397387768827
135.053665 0.005750696548406649
135.066208 0.0161937663159104
135.080109 0.01728535630477494
136.061661 0.03400118739796838
136.07312 0.001501213456851701
137.082108 0.013408459800235927
139.007065 0.012440843562646332
140.014801 0.02116580125299982
140.027481 0.010181372045671131
141.022919 0.004160106666217197
145.050842 0.0015384721155532945
148.06131 0.0016952689709225
148.991241 0.001134614868555666
149.06813 0.0008491869295738164
150.011887 0.008620722157081175
150.077209 0.02326160080496445
151.007111 0.006040781819726198
151.061432 0.0007369673980083029
152.027542 0.03645050065213742
153.022644 0.01201946587494974
160.061386 0.008212207577745847
161.069443 0.01144794466379494
162.077133 0.1025965958449055
166.018005 0.061081357164385425
166.03421 0.0014082885878280841
167.025497 0.2633632725876737
167.038757 0.03479204678445578
168.033646 0.16447790528272335
169.017822 0.005490107715225862
170.037704 0.005109315352186362
176.056351 0.003180957986648537
177.022491 0.043969652822487555
180.033554 0.37152094502152244
194.049225 0.8990028651464986
195.033432 0.020369175645522895
195.056885 0.06563711530157669
207.0439 0.001013080672314754
302.106232 1.0
END IONS

BEGIN IONS
CHARGE=1+
PRECURSORTYPE=M+H
FORMULA=C22H20N2O4
ONTOLOGY=
INCHIKEY=KXBZBBGZKWRRHH-UHFFFAOYSA-N
INCHI=InChI=1S/C22H20N2O4/c1-13-16(17-12-15(27-2)7-8-19(17)24-13)9-10-23-21(25)18-11-14-5-3-4-6-20(14)28-22(18)26/h3-8,11-12,24H,9-10H2,1-2H3,(H,23,25)
SMILES=COc1ccc2[nH]c(C)c(CCN=C(O)c3cc4ccccc4oc3=O)c2c1
IONMODE=positive
INSTRUMENTTYPE=LC-ESI-Orbitrap
INSTRUMENT=Orbitrap
COMMENT=DB#=CCMSLIB00010119608; origin=GNPS
NUM_PEAKS=65
COMPOUND_NAME=N-[2-(5-methoxy-2-methylindol-3-yl)ethyl](2-oxochromen-3-yl)carboxamide
PRECURSOR_MZ=377.15
COLLISION_ENERGY=205060
PARENT_MASS=376.1427235480092
54.232498 0.0003921105360470541
56.965359 0.000382872898695613
63.992489 0.000396892371852506
66.751137 0.00047274967622081086
91.05455 0.0048937742345340485
92.388687 0.00046362071695585724
92.592041 0.0004647074978207327
103.054352 0.00045731738793957976
115.054367 0.0014348767758950265
117.058006 0.0006217473327952319
117.069969 0.0032853385545184165
119.049156 0.00036157199374405464
119.085487 0.00038852415919296524
119.337379 0.0003787431314090864
121.064613 0.00053426147317276
128.050537 0.0004747058817775866
128.062057 0.002072382431230952
129.069885 0.0055545370003783085
130.065399 0.006779013000833453
130.674347 0.0003815687616577625
131.073212 0.0025291564287380944
131.085693 0.0016363659482429307
132.056946 0.004843456280490316
132.081284 0.0028758395246333552
134.059799 0.0005455639941674645
141.070496 0.0006471780050333169
143.073151 0.013519553959050315
143.085251 0.0008811619252409963
144.080856 0.013444457401287422
145.088699 0.04651302555771692
146.06015 0.0027979173366217873
146.072418 0.0005577359398540692
147.067734 0.00481411319713868
147.080719 0.005457922181490883
148.0755 0.00039439277586329253
155.072418 0.00045351365491251577
156.057587 0.0005414342268809378
156.081024 0.014649480024261296
157.088791 0.06479344045152702
158.06015 0.029314283658717334
158.096436 0.01868545812214917
160.075668 0.004533397699741357
160.111389 0.0026916301680369706
161.083328 0.002556543306532955
161.096451 0.002540893662078749
162.091507 0.0022935423372331017
168.318573 0.000407108111982335
171.081085 0.0033774975718598526
172.039322 0.007992512514553355
172.075668 0.011579324080988215
173.083694 0.34614916045634797
174.091217 0.005080917899465597
175.094833 0.004394941817556228
176.108032 0.0005229589521780556
186.092529 0.0008221497242782607
187.099625 0.00490475072126929
187.44252 0.0006922794109256471
188.107117 1.0
191.033905 0.01722199900950792
216.065445 0.00893562094909225
270.37677 0.00045905623732338046
336.011292 0.00045340497682602824
359.136383 0.0018094901400175863
377.149353 0.05769882628753374
384.605865 0.0003993919678417195
END IONS

BEGIN IONS
CHARGE=1+
PRECURSORTYPE=M+H
FORMULA=C10H12O4
ONTOLOGY=
INCHIKEY=BIGQPYZPEWAPBG-UHFFFAOYSA-N
INCHI=InChI=1S/C10H12O4/c1-12-8-5-4-7(10(11)14-3)6-9(8)13-2/h4-6H,1-3H3
SMILES=COC(=O)c1ccc(OC)c(OC)c1
IONMODE=positive
INSTRUMENTTYPE=LC-ESI-Orbitrap
INSTRUMENT=Orbitrap
COMMENT=DB#=CCMSLIB00010125125; origin=GNPS
NUM_PEAKS=59
COMPOUND_NAME="methyl 3,4-dimethoxybenzoate "
PRECURSOR_MZ=197.081
COLLISION_ENERGY=205060
PARENT_MASS=196.07372354800924
53.039089 0.03000987973574261
55.01852 0.002311595482465293
56.965351 0.00258595151194981
64.04895 0.0018292834199938415
65.039017 0.004469230533491137
66.046883 0.0038490107859862443
67.054657 0.012232922431670026
77.039108 0.003344808614779326
78.046783 0.00875020613185726
79.054527 0.0425602087440769
80.061958 0.002381643830418787
81.033867 0.002602004258355819
81.070084 0.011763744434439853
84.9599 0.003584870140578278
85.065399 0.0016366504631217338
89.53009 0.0017716394669904456
91.05442 0.04491120642226604
91.078697 0.001908087811441522
92.025513 0.0019066284708591575
92.062187 0.01102823678092817
92.32753 0.0019058988005679752
93.069992 0.004521037124165074
94.041313 0.01772004302136037
95.049232 0.10806635913496128
96.057083 0.00288073830958743
98.536713 0.0017876922133964546
105.033508 0.004023401985578797
105.044777 0.0026341097511678375
106.041573 0.0026859163418417754
107.049202 0.02046068463504081
108.056923 0.03386618722464067
109.028717 0.027989422699459022
109.064796 0.044166942725260165
110.072472 0.02813900510915138
112.968132 0.002059129561716243
118.665581 0.0018913053947443308
120.358521 0.001873063637464775
121.028397 0.01298156415042299
121.06459 0.047071760154456604
122.036186 0.058774941954728335
122.07251 0.13393900831970065
123.043938 0.24289264652873951
123.08004 0.0225424339757837
126.03125 0.01230953781224416
137.023346 0.011134038973149593
137.060211 0.0077855820069143555
138.067459 1.0
139.034836 0.002678619638929953
141.054642 0.002278760319362093
150.031128 0.007723560032163866
153.090836 0.20476591447388584
155.070068 0.019010100096170546
157.607773 0.0022867866925650976
159.573074 0.0020598592320074252
165.054504 0.8569087372180006
167.033508 0.002368509765177507
168.042068 0.012680939990455912
182.057083 0.006653863385290722
197.080627 0.22018749607802218
END IONS

BEGIN IONS
CHARGE=1+
PRECURSORTYPE=M+H
FORMULA=C20H11BrO6
ONTOLOGY=
INCHIKEY=HNMJRVNTKFYJEI-UHFFFAOYSA-N
INCHI=InChI=1S/C20H11BrO6/c21-14-4-1-2-5-15(14)27-18-11-25-17-10-12(7-8-13(17)19(18)22)26-20(23)16-6-3-9-24-16/h1-11H
SMILES=O=C(Oc1ccc2c(=O)c(Oc3ccccc3Br)coc2c1)c1ccco1
IONMODE=positive
INSTRUMENTTYPE=LC-ESI-Orbitrap
INSTRUMENT=Orbitrap
COMMENT=DB#=CCMSLIB00010124610; origin=GNPS
NUM_PEAKS=19
COMPOUND_NAME=3-(2-bromophenoxy)-4-oxochromen-7-yl furan-2-carboxylate
PRECURSOR_MZ=426.981
COLLISION_ENERGY=205060
PARENT_MASS=425.9737235480092
53.002789 0.001845284132706684
55.018459 0.0004891762226799233
56.197269 0.00032066047097749887
73.939163 0.00039339346579154674
83.013046 0.012387984672152564
83.018463 0.0004471490946574724
94.774406 0.0003699364641045974
95.012932 1.0
95.252388 0.0004214929990623715
113.023354 0.002801482743139967
118.041267 0.0015624154977803813
215.474701 0.00036333918238014285
253.047852 0.0005385336637295459
259.493896 0.00035128488984657164
319.060791 0.0004488595010304791
332.97525 0.003927500272036062
347.055786 0.0012771034251783547
376.966492 0.0007367779071532778
426.980713 0.5239083046256556
END IONS

BEGIN IONS
CHARGE=1+
PRECURSORTYPE=M+H
FORMULA=C15H21NO6
ONTOLOGY=
INCHIKEY=QTUHHHIOMGXNRY-UHFFFAOYSA-N
INCHI=InChI=1S/C15H21NO6/c1-8(2)12(15(18)19)16-14(17)9-6-10(20-3)13(22-5)11(7-9)21-4/h6-8,12H,1-5H3,(H,16,17)(H,18,19)
SMILES=COc1cc(C(O)=NC(C(=O)O)C(C)C)cc(OC)c1OC
IONMODE=positive
INSTRUMENTTYPE=LC-ESI-Orbitrap
INSTRUMENT=Orbitrap
COMMENT=DB#=CCMSLIB00010120826; origin=GNPS
NUM_PEAKS=74
COMPOUND_NAME="3-methyl-2-[(3,4,5-trimethoxyphenyl)carbonylamino]butanoic acid "
PRECURSOR_MZ=312.144
COLLISION_ENERGY=205060
PARENT_MASS=311.13672354800923
51.023369 0.00133777095208724
53.039089 0.020228352465044782
53.052151 0.0009445118274406558
55.018349 0.0015243965542221542
55.054649 0.002308155090359908
58.357441 0.001046621214190997
65.03569 0.0009324380823857168
65.038986 0.009950145781847435
65.43972 0.0008699995722444609
66.0467 0.002092897464237567
67.05455 0.005850936853623434
68.02594 0.001090776624677631
68.997383 0.0018610815591827386
69.033798 0.0017631117421655193
71.049332 0.0015651023232645198
72.080948 0.0059637401288510075
75.044167 0.004481774164393353
78.046638 0.0019079966828247873
79.054527 0.05871807184361257
81.03373 0.033681954097691084
81.070213 0.03057831169028291
82.041588 0.0012246227127152404
82.390083 0.0011987504018832282
83.049088 0.0020456373764510915
85.02861 0.0022888370982720057
91.054153 0.0019638808742219334
92.025574 0.0015054235262786785
92.369797 0.0011763277324954844
93.033386 0.003606255165838063
94.041496 0.008146673234783977
95.049362 0.009308512473213534
96.057068 0.026735066157223618
96.063652 0.001940768276545336
99.043793 0.0013032745376445572
105.044403 0.0014812760361688007
106.040718 0.0011721881627623624
107.048668 0.005723990048474362
108.056717 0.011393475762129283
109.028389 0.008328469338896916
109.056427 0.0019314542446458116
109.064743 0.04634351805473339
111.08033 0.011402099865739954
113.02314 0.009280225413370534
113.059677 0.008712414431643976
113.066841 0.000962104998806424
121.028198 0.00708797827553804
122.026733 0.0016175368732173978
122.036201 0.038799497180263084
123.043854 0.0018731553042376776
124.05191 0.06653633921290221
124.07547 0.006030318208725385
125.060173 0.0013767519004074717
127.039284 0.0014978343151012883
128.046844 0.013533978278297753
135.043701 0.002101176603703811
137.023407 0.01686495205688321
139.075302 0.10131596921815947
141.018295 0.012928911168973097
141.054871 0.0010438615010355823
143.070282 0.003993649900029391
151.038712 0.014933497812237396
152.046707 0.13677241887478214
156.041656 0.02794554534001736
167.070099 0.0011421762821972284
170.057343 0.0013726123306743497
184.036148 0.011068864502223639
185.081207 0.005723300120185508
189.05452 0.0049788674965124124
195.065125 1.0
204.179733 0.0009800431343166191
260.932709 0.0012646385534687524
269.489929 0.000966244568539546
288.92569 0.0012591191271579232
314.37149 0.0009748686721502167
END IONS

BEGIN IONS
CHARGE=1+
PRECURSORTYPE=M+H
FORMULA=C15H12O4
ONTOLOGY=
INCHIKEY=NXTSNFDLQUTBRV-UHFFFAOYSA-N
INCHI=InChI=1S/C15H12O4/c16-11-6-8-15(19)12(9-11)14(18)7-5-10-3-1-2-4-13(10)17/h1-9,16-17,19H/b7-5+
SMILES=O=C(C=Cc1ccccc1O)c1cc(O)ccc1O
IONMODE=positive
INSTRUMENTTYPE=LC-ESI-Orbitrap
INSTRUMENT=Orbitrap
COMMENT=DB#=CCMSLIB00010119677; origin=GNPS
NUM_PEAKS=47
COMPOUND_NAME="2,2',5'-Trihydroxychalcone "
PRECURSOR_MZ=257.081
COLLISION_ENERGY=205060
PARENT_MASS=256.07372354800924
53.039051 0.004772119459588731
55.018269 0.0007095659689976121
56.965271 0.0006514976960856319
68.506477 0.0005831106708443451
68.99749 0.0038624506267933892
79.054367 0.000636525388784285
81.033768 0.10379066448313774
83.012863 0.00324474178637431
91.054337 0.012724437921374345
95.012718 0.001368145161779827
96.020683 0.04989319079696782
101.023537 0.001236429323223384
103.054329 0.01991701295185513
106.491348 0.0005756245171936716
107.049103 0.0200645104116211
109.028442 0.015116769833957112
111.007637 0.022373887648615323
111.01622 0.0009226178553262364
119.049072 0.0040726699144433805
125.021912 0.0006007132483472798
127.039047 0.016410458116184294
131.049133 0.0012149825046565898
135.044113 0.006236168319487995
136.609375 0.0013112908597301182
137.0233 1.0
137.439301 0.0010482638395713226
141.069962 0.0031259749703487615
144.056747 0.0008000067982368288
145.028412 0.0006958076325585367
147.043823 0.00864731678043597
153.069107 0.001053119723020408
155.033646 0.001311088531253073
155.085709 0.0027389205937612417
159.080521 0.0023897016423811797
163.038864 0.06880200094770658
165.069611 0.005646380808901158
169.064346 0.004865999872937716
183.080078 0.0030970419981312942
185.413437 0.0006723375292212903
187.074921 0.0037766633525262126
197.060791 0.00499852502540234
211.07518 0.0024305719947443154
215.069901 0.02481720633741349
215.093582 0.0010167005971522672
238.057861 0.0007229196484825971
239.069931 0.11213691648973041
257.080475 0.06582514206494015
END IONS

BEGIN IONS
CHARGE=1+
PRECURSORTYPE=M+H
FORMULA=C15H10O3
ONTOLOGY=
INCHIKEY=ISZWRZGKEWQACU-UHFFFAOYSA-N
INCHI=InChI=1S/C15H10O3/c16-11-5-3-4-10(8-11)15-9-13(17)12-6-1-2-7-14(12)18-15/h1-9,16H
SMILES=O=c1cc(-c2cccc(O)c2)oc2ccccc12
IONMODE=positive
INSTRUMENTTYPE=LC-ESI-Orbitrap
INSTRUMENT=Orbitrap
COMMENT=DB#=CCMSLIB00010115881; origin=GNPS
NUM_PEAKS=69
COMPOUND_NAME=3'-Hydroxyflavone
PRECURSOR_MZ=239.07
COLLISION_ENERGY=205060
PARENT_MASS=238.06272354800925
50.01564 0.0009232914051706559
51.02335 0.00019725017446899307
52.838612 0.0001430670640634208
53.002708 0.0001562627210490398
53.039108 0.0008643777762230694
55.018261 0.0017958542233447107
56.96524 0.00014677056213249784
65.038948 0.00886891309863156
68.993263 0.00019575632650835695
68.997498 0.004870286691831365
77.038773 0.0015079150289321003
81.033607 0.0020079806337550384
84.959587 0.00022771844849946707
89.03894 0.0006111394250627354
91.054314 0.014759093363754716
93.028061 0.0001402038554722016
93.033531 0.01125766935318624
95.049171 0.03248587131047563
103.054176 0.00016158455440880594
105.03315 0.0002593382303329314
105.044853 0.0018007403510492913
111.043999 0.0079853020299153
115.054466 0.0007814692144077652
117.032997 0.00027888274115125386
118.041389 0.000720377057184251
119.049088 0.030640533373434854
121.028343 0.08480279215122323
128.062683 0.0002524914271800159
129.06958 0.0002721915471609046
131.048157 0.0003257522209162118
133.02861 0.0003517389510647775
134.036407 0.0002364948052682042
139.038849 0.006692625594644854
141.069611 0.003351479021519627
145.02832 0.033690006132245875
152.061905 0.010868833177765666
153.069839 0.005525650240895432
154.077087 0.0007735953907819124
155.049744 0.00016619058562076727
155.085144 0.006645071434564605
163.038589 0.0005900077007862371
165.069717 0.03379980395735263
166.027679 0.0021707166959668346
166.077469 0.0032972025456165146
167.086243 0.0015448255222928176
168.057419 0.0012120086453960976
169.064499 0.0033197658741886227
175.033859 0.002225366633860106
176.035416 0.0003105958884822579
176.061981 0.010321275656527506
177.052246 0.00023014595143550074
177.069839 0.007625938229884777
178.077744 0.0006033278451019091
181.065018 0.0015459147864307814
182.072556 0.0009775056374087415
183.080353 0.011828319274149235
193.062698 0.0049122700438917425
194.071747 0.0032406541759399353
195.082031 0.0011190166098464997
196.030197 0.0020409697762190857
197.059555 0.0027578923099943657
210.067505 0.0006922117987597576
211.075058 0.017295865053742424
221.058624 0.0021181519208519515
222.067596 0.00020138937819325564
238.060776 0.0008468561845181083
238.119034 0.0007776101071761219
239.069855 1.0
240.026123 0.0009039336253474131
END IONS

BEGIN IONS
CHARGE=1+
PRECURSORTYPE=M+H
FORMULA=C18H19NO4
ONTOLOGY=
INCHIKEY=OJQMJANMNHJQMO-UHFFFAOYSA-N
INCHI=InChI=1S/C18H19NO4/c1-11-16(18(21)23-3)14-10-15(20)12-6-4-5-7-13(12)17(14)19(11)8-9-22-2/h4-7,10,20H,8-9H2,1-3H3
SMILES=COCCn1c(C)c(C(=O)OC)c2cc(O)c3ccccc3c21
IONMODE=positive
INSTRUMENTTYPE=LC-ESI-Orbitrap
INSTRUMENT=Orbitrap
COMMENT=DB#=CCMSLIB00010121423; origin=GNPS
NUM_PEAKS=89
COMPOUND_NAME=methyl 5-hydroxy-1-(2-methoxyethyl)-2-methylbenzo[g]indole-3-carboxylate
PRECURSOR_MZ=314.139
COLLISION_ENERGY=205060
PARENT_MASS=313.13172354800923
59.04958 0.23937352129214617
69.332947 0.0010794723197290132
75.831551 0.0010174828201802183
84.959732 0.004572259983961107
92.370773 0.001622058571526798
93.101891 0.0010848162421039094
104.27816 0.001414714383380829
141.069962 0.002176401452549354
153.068878 0.0017118364674250524
165.068329 0.00329292496741098
166.06485 0.005290126889655485
167.072525 0.015319244141368834
167.085983 0.005161516491166318
168.080933 0.018607893970879898
169.064758 0.006564830506814036
178.063461 0.0018710853541969562
179.071487 0.0041589966536358085
179.08725 0.001517317692978834
180.08049 0.0027945151405790033
181.064453 0.008143781437850005
181.087555 0.0053727795557205445
182.057968 0.0014425027797302886
182.074219 0.0015005734028708264
182.094543 0.006199662477862801
183.067337 0.0023484757530210084
185.047134 0.0027820459883709124
192.079575 0.0020602602062682785
193.088028 0.00932977594358528
194.061371 0.010088969182312188
194.096191 0.06703024339428848
195.064331 0.013168849777710642
195.08284 0.005149047338958227
195.10141 0.011295270593072069
196.075546 0.0964232415021837
196.108566 0.0028996122806186266
197.083527 0.018295808904185966
198.053558 0.0012682909103086757
199.062637 0.019558755892119747
204.080475 0.019749712051649364
205.088287 0.02559346929934409
206.095261 0.0017406936482494914
207.067581 0.20007289110119358
208.075241 0.013210888633726492
209.08197 0.01627224363155864
210.057922 0.012660108367620533
210.090942 0.13502631169246654
210.126099 0.0025821832915497982
211.062408 0.008301961540146929
211.099091 0.007362499986640194
220.075546 0.009681049774361784
221.083359 0.05992068906672671
222.055984 0.02447694578448246
222.091019 0.3023797911381379
223.062103 0.10003181415120521
223.098694 0.17531057986189166
224.070236 0.23358462831416707
224.105652 0.014711818298088977
225.111008 0.00707962836226236
232.075485 0.0014945169575126109
235.061874 0.012673290042811943
236.070267 0.007050414919946261
237.078018 0.001978320063186538
238.086288 0.00897244566745056
238.121384 0.0051276716494586426
239.055679 0.0013096172433412056
239.066162 0.0011760191839688028
239.093033 0.014304255151630235
240.065063 0.04232279642470217
240.093994 0.0014628096847548939
241.073486 0.018095233684381533
242.080154 0.006768255818551747
249.078766 0.0019042176729213121
250.085846 0.24867444005490702
251.094864 0.004529864866453599
253.111542 0.0013737443118399587
254.08078 0.007842384215905863
254.116562 0.0403961342778063
255.088318 0.06920985120026278
255.124176 0.021044366312340863
256.095978 0.0015027109718207849
266.0802 0.008838491346586498
267.088226 0.026898811404785377
268.096375 0.03612455899280601
269.099487 0.005783549055604225
270.111359 0.0045227396366204035
282.111969 1.0
300.122711 0.012308478275352369
314.137756 0.48220527288383347
314.187988 0.015280055377286264
END IONS

BEGIN IONS
CHARGE=1+
PRECURSORTYPE=M+H
FORMULA=C16H12O2
ONTOLOGY=
INCHIKEY=OPHKKQQCOYMLPW-UHFFFAOYSA-N
INCHI=InChI=1S/C16H12O2/c1-11-6-8-12(9-7-11)16-10-14(17)13-4-2-3-5-15(13)18-16/h2-10H,1H3
SMILES=Cc1ccc(-c2cc(=O)c3ccccc3o2)cc1
IONMODE=positive
INSTRUMENTTYPE=LC-ESI-Orbitrap
INSTRUMENT=Orbitrap
COMMENT=DB#=CCMSLIB00010114942; origin=GNPS
NUM_PEAKS=44
COMPOUND_NAME=4'-Methylflavone
PRECURSOR_MZ=237.091
COLLISION_ENERGY=205060
PARENT_MASS=236.08372354800926
51.023499 0.0010633315066258338
53.039181 0.010317714390775785
55.018539 0.0008532547493046265
55.934929 0.0020709878171665404
56.96521 0.0009335306134273683
60.537571 0.0007949900092155398
63.489689 0.0008280066952660222
65.039078 0.006754178148327138
68.997597 0.0019813248560294457
86.885727 0.000873323715335312
91.054314 0.004848921147414
93.033539 0.011502107079586722
95.049347 0.027031278778330826
99.165916 0.0007098587500853741
105.044617 0.0008043771062298926
111.044037 0.006477096939903481
115.054428 0.013044827919945542
117.069923 0.04773079877398039
119.048813 0.006816327204422165
121.028473 0.062087878117932364
139.039062 0.008615412901172965
143.049286 0.031821935185655736
152.062271 0.0010659210506297934
153.070358 0.0011329255017322431
155.720428 0.0009283515254194495
165.069794 0.011366156019378853
166.077805 0.025550059608066042
167.08551 0.001251720832913881
177.069 0.0011238620977183852
178.077881 0.03645074509273319
179.085281 0.0013128988100074223
181.101074 0.01583376681220983
183.911743 0.0010827530866555294
191.085037 0.005413765433277647
192.093109 0.0015294494273385283
193.101974 0.0011873059258153908
194.073303 0.008960145946700063
195.079987 0.0019220890369388741
201.922806 0.001053297023610491
209.096573 0.0037163193386822524
213.922913 0.0019502503279819328
222.067413 0.001578974456414252
236.083527 0.000899866541375896
237.090942 1.0
END IONS

BEGIN IONS
CHARGE=1+
PRECURSORTYPE=M+H
FORMULA=C16H12O2
ONTOLOGY=
INCHIKEY=OPHKKQQCOYMLPW-UHFFFAOYSA-N
INCHI=InChI=1S/C16H12O2/c1-11-6-8-12(9-7-11)16-10-14(17)13-4-2-3-5-15(13)18-16/h2-10H,1H3
SMILES=Cc1ccc(-c2cc(=O)c3ccccc3o2)cc1
IONMODE=positive
INSTRUMENTTYPE=LC-ESI-Orbitrap
INSTRUMENT=Orbitrap
COMMENT=DB#=CCMSLIB00010114943; origin=GNPS
NUM_PEAKS=63
COMPOUND_NAME=4'-Methylflavone
PRECURSOR_MZ=237.091
COLLISION_ENERGY=205060
PARENT_MASS=236.08372354800926
51.023109 0.0006544131649950583
51.616051 0.000391072488498345
53.039021 0.009635951979634575
55.018108 0.0008979839842533087
55.934769 0.006220091333651401
59.132568 0.0003759361915501468
61.010948 0.0011387746673374003
65.03894 0.00813421508955977
68.997276 0.002144720606353878
72.937157 0.0008901069317598586
79.021263 0.000520812176625758
81.033531 0.0008138076389801657
90.947403 0.0007036833560815402
91.054199 0.006365430674756039
93.027031 0.0005795039403024448
93.033493 0.01318402354589997
95.049088 0.02959501292994999
104.262367 0.0005002700593389176
105.044456 0.0008074751065834706
106.924828 0.00046351048103615057
111.043793 0.005685841832183876
115.054047 0.012274610112930675
116.062233 0.0006939528794719841
117.069702 0.04840664990038618
118.924583 0.0008643134461440515
119.049118 0.008388597549495305
121.028267 0.06347174447212396
139.038879 0.008393231109785569
141.069687 0.0008683291983956143
143.049057 0.031321168590083284
152.061554 0.0006786621305141105
153.06929 0.0009424661630398503
165.069717 0.010974587547492063
166.077591 0.025761205145784935
167.085693 0.0010351373688451454
177.069077 0.0004923930068454675
178.077393 0.03562188479949735
179.084915 0.0022046479861079684
181.101044 0.017708849621353176
183.911194 0.004418717544806142
185.928772 0.0005282258730901816
186.93544 0.0006032895497924706
189.068573 0.00047864677798434876
190.077484 0.0008246192796574502
191.085693 0.006524979600750822
192.092377 0.0010135140874905765
193.100632 0.0018078607732516304
194.072632 0.00841408213109176
195.080032 0.0033480562137356337
195.947678 0.0024440486011049808
201.922562 0.003205342556795479
203.938141 0.003023089185378399
208.088058 0.000557571754928525
209.095734 0.002964706325721063
213.922546 0.006880682579033479
219.933228 0.000726233349494162
222.066742 0.0025853721899580556
231.933823 0.001058305170296469
236.082718 0.0025924769824031283
236.150696 0.0010130507314615501
237.09053 1.0
238.035355 0.001439338278165907
245.230896 0.0005410453898932474
END IONS

BEGIN IONS
CHARGE=1+
PRECURSORTYPE=M+H
FORMULA=C16H12O4
ONTOLOGY=
INCHIKEY=WHLQVYWQNZFUPW-UHFFFAOYSA-N
INCHI=InChI=1S/C16H12O4/c1-19-11-8-5-9-12-13(11)14(17)15(18)16(20-12)10-6-3-2-4-7-10/h2-9,18H,1H3
SMILES=COc1cccc2oc(-c3ccccc3)c(O)c(=O)c12
IONMODE=positive
INSTRUMENTTYPE=LC-ESI-Orbitrap
INSTRUMENT=Orbitrap
COMMENT=DB#=CCMSLIB00010119186; origin=GNPS
NUM_PEAKS=24
COMPOUND_NAME=3-Hydroxy-5-methoxyflavone
PRECURSOR_MZ=269.081
COLLISION_ENERGY=205060
PARENT_MASS=268.07372354800924
73.952393 0.0017287982734172991
86.375763 0.0018623842689131705
92.373787 0.0016753638752189507
94.978821 0.0016258393110351154
105.033363 0.013910537784635916
115.67067 0.0019360194761865043
115.679321 0.0018128597047293352
136.015808 0.0023498102427224957
142.573196 0.001644736842105263
152.062012 0.007132840520477104
158.106934 0.0015984704729335225
160.459381 0.0015743598298440238
166.858276 0.00192103177913087
180.0569 0.008917679748102427
181.064468 0.0034015555926265742
197.058929 0.01346416506797898
198.068512 0.002646305988823088
208.05162 0.0030398959462840935
225.054916 0.007612446826257403
226.062241 0.05609308532821753
253.049225 0.8497274845691885
254.056946 0.5943736185253149
266.975555 0.0024729700141796645
269.080353 1.0
END IONS

BEGIN IONS
CHARGE=1+
PRECURSORTYPE=M+H
FORMULA=C24H21N3O2
ONTOLOGY=
INCHIKEY=PXHLOLMVLMSNKI-UHFFFAOYSA-N
INCHI=InChI=1S/C24H21N3O2/c28-22(25-16-15-18-9-3-1-4-10-18)17-27-21-14-8-7-13-20(21)26-24(27)23(29)19-11-5-2-6-12-19/h1-14H,15-17H2,(H,25,28)
SMILES=O=C(c1ccccc1)c1nc2ccccc2n1CC(O)=NCCc1ccccc1
IONMODE=positive
INSTRUMENTTYPE=LC-ESI-Orbitrap
INSTRUMENT=Orbitrap
COMMENT=DB#=CCMSLIB00010115363; origin=GNPS
NUM_PEAKS=59
COMPOUND_NAME=2-[2-(phenylcarbonyl)benzimidazolyl]-N-(2-phenylethyl)acetamide
PRECURSOR_MZ=384.171
COLLISION_ENERGY=205060
PARENT_MASS=383.1637235480092
50.015511 0.0036862033000476364
51.023281 0.0032204995373093207
53.039009 0.0034818135701917595
53.41254 0.0003579083462783315
55.01823 0.001493219184589963
66.734619 0.00035319280349260394
77.038559 0.007260665801132616
77.042671 0.000432438243143871
79.054489 0.011377280606737135
81.03363 0.006914958415127959
91.054237 0.016981764009701965
93.070168 0.0008770098886418491
95.049103 0.02257064153324698
101.321823 0.0003404648914463134
103.054108 0.010012853840008362
103.061928 0.0004746889660406336
104.049393 0.0020581655311711702
104.755013 0.0008951289226695301
105.033363 1.0
105.069649 0.16277738876426404
105.313148 0.0008873192271676661
115.054039 0.006258471087534418
117.069618 0.02190710115885072
118.064758 0.001750939136151475
119.060013 0.000685104862321824
119.072807 0.0019498836976903082
120.080513 0.003948733375482269
121.064278 0.004669562865670752
131.060165 0.011828878275870008
132.068085 0.004198630119958004
133.064255 0.0005951717597951688
134.096283 0.008525417613333273
144.080673 0.0022832009612465073
145.064667 0.00289658633615675
157.062897 0.0015438200663451197
158.070908 0.005833356122871534
159.054962 0.006562414167663191
162.055099 0.0005195609362165684
162.090744 0.0006272752831730734
163.049866 0.018037194363918405
168.473373 0.00037220360205856006
177.065231 0.006078550836145454
198.662354 0.00038122934011261745
202.061249 0.0038093073410813438
206.083679 0.003409553619423648
207.091202 0.02867355375518804
208.478638 0.000867268036640389
219.091492 0.0005439763683478284
223.086044 0.04389728504718407
234.078308 0.005922802808377312
235.085953 0.18736406671004066
237.101624 0.0021375190634937433
262.132629 0.0008325973123189651
263.08075 0.024763949926718574
306.122955 0.0006557441904783112
380.558136 0.0004021722951781697
382.223083 0.00048520097832514944
384.169464 0.6174426333277161
386.129669 0.0005873215295415649
END IONS

BEGIN IONS
CHARGE=1+
PRECURSORTYPE=M+H
FORMULA=C38H52ClNO4
ONTOLOGY=
INCHIKEY=HJRJHCRVZOCICT-UHFFFAOYSA-N
INCHI=InChI=1S/C38H52ClNO4/c1-23(41)44-30-14-15-36(6)29(33(30,2)3)13-16-38(8)31(36)28(42)21-24-25-22-35(5,18-17-34(25,4)19-20-37(24,38)7)32(43)40-27-12-10-9-11-26(27)39/h9-12,21,25,29-31H,13-20,22H2,1-8H3,(H,40,43)
SMILES=CC(=O)OC1CCC2(C)C(CCC3(C)C2C(=O)C=C2C4CC(C)(C(O)=Nc5ccccc5Cl)CCC4(C)CCC23C)C1(C)C
IONMODE=positive
INSTRUMENTTYPE=LC-ESI-Orbitrap
INSTRUMENT=Orbitrap
COMMENT=DB#=CCMSLIB00010124621; origin=GNPS
NUM_PEAKS=121
COMPOUND_NAME="17-[N-(2-chlorophenyl)carbamoyl]-1,2,6,6,10,17,20-heptamethyl-12-oxopentacyclo [12.8.0.0<2,11>.0<5,10>.0<15,20>]docos-13-en-7-yl acetate "
PRECURSOR_MZ=622.366
COLLISION_ENERGY=205060
PARENT_MASS=621.3587235480093
53.039131 0.003063066672899651
55.054741 0.023561237959766085
57.07024 0.009037827537770772
62.34621 0.0018893734292322521
65.039101 0.0032394823951578614
67.054611 0.055440171139946086
69.033974 0.008047228214049592
69.07029 0.0456388029998464
73.956337 0.0019967811087143804
79.054451 0.04298032380354523
81.070122 0.14999343310560678
82.406387 0.0017797396838541214
83.049339 0.05540511060208404
83.085739 0.027839736611883183
91.054367 0.0458057579420466
92.385231 0.0030691883541136586
92.905167 0.0019121906046662793
93.069946 0.10341300423175127
95.049187 0.018672797252144258
95.085579 0.20975161556732402
97.064812 0.012313483503738678
97.101212 0.012882243340167356
104.293037 0.0025382716379170256
105.061752 0.004482183681601343
105.069794 0.1292670900644001
107.049026 0.003430367545740089
107.085457 0.1740644401555575
109.064667 0.015760546543698788
109.101181 0.08576864942356023
111.080673 0.007050507209114404
117.07 0.008193035530237766
119.085426 0.2348304739516899
121.064697 0.013090937017917604
121.101112 0.14784472299949022
123.079964 0.015958666408443022
123.116692 0.0567986278529817
123.126183 0.0031832742312837945
126.010422 0.013417612188155993
128.026413 0.004713694534785619
129.069794 0.002903346444861461
131.085373 0.03557921121581041
133.065109 0.0025110023306909933
133.101074 0.1528606059796582
135.080231 0.04551191724377425
135.116608 0.08954628324907674
137.09613 0.011248310972501408
137.132355 0.02086491564323287
139.111893 0.008713378433428386
141.069199 0.002123666864786531
142.078064 0.004248446762521064
143.085587 0.01702328242320629
144.094086 0.0029222680049774833
145.100952 0.053993784824018363
146.109451 0.003081431716541673
147.080261 0.011339579674237517
147.116638 0.09629460201280879
149.095917 0.09430449910178242
149.132172 0.01638328847810553
151.111282 0.003358576920594003
152.026199 0.003088666430703682
154.005142 0.02284611429067523
155.085861 0.0040035795139607725
156.092285 0.002446446419706916
157.101074 0.034711602032843375
158.109497 0.0031187183202997177
159.08017 0.004510009505301376
159.11673 0.04381175941570222
160.125366 0.002435316090226903
161.095932 0.027131847656954342
161.132065 0.04702898115190006
163.111588 0.01187884413754416
163.147293 0.0033847331948720348
169.101135 0.010078513344152013
170.109039 0.003790990220892519
171.116562 0.029866013093719602
173.09552 0.009671143285183528
173.132385 0.06477128285951521
175.111618 0.020414693815766334
175.147964 0.09299612887140685
177.163849 0.011839331467890112
183.116745 0.012402526139578783
184.124771 0.0023418213225947916
185.132568 0.011546047286091763
187.112061 0.0039150933945946665
187.148026 0.01841513012468195
189.127792 0.009092922668696839
189.163559 0.16708683660453716
191.142624 0.0031827177148097937
191.179306 0.011329005861231504
196.124252 0.0023190041471607644
197.132568 0.015290846639642227
199.147797 0.02901676895439459
201.128693 0.006775031554484076
201.16394 0.00975684682217963
203.142319 0.002904459477809462
209.131622 0.0028872074671154415
211.147934 0.017026065005576296
213.163651 0.008501902173308134
215.143005 0.013827764829494483
215.180176 0.004076483172054859
217.158508 0.05483579424918136
223.148392 0.0032923514601879244
225.164001 0.003113153155559711
227.180786 0.0029551024769435227
229.158447 0.004575121932759454
229.195343 0.0035088363685741824
239.178345 0.00407703968852886
253.19487 0.010870436286654957
257.189972 0.004893449355887833
265.195465 0.003596209454992287
267.213043 0.003428697996318087
271.206635 0.008017176324453557
277.178955 0.008723952246434399
344.176422 0.03507667683978781
389.320984 0.012974068558377466
407.330078 0.035726131564946584
467.351837 0.04806354527706729
544.335083 0.002853259962201401
562.343201 0.01143530050776563
618.377502 0.002438098672596906
622.364563 1.0
END IONS

BEGIN IONS
CHARGE=1+
PRECURSORTYPE=M+H
FORMULA=C21H21NO8
ONTOLOGY=
INCHIKEY=ZQQQUKPBABZCCK-UHFFFAOYSA-N
INCHI=InChI=1S/C21H21NO8/c1-10(2)28-21(26)16-15(11-4-6-12(7-5-11)20(25)27-3)18-17(30-19(16)22)14(24)8-13(9-23)29-18/h4-8,10,15,23H,9,22H2,1-3H3
SMILES=COC(=O)c1ccc(C2C(C(=O)OC(C)C)=C(N)Oc3c2oc(CO)cc3=O)cc1
IONMODE=positive
INSTRUMENTTYPE=LC-ESI-Orbitrap
INSTRUMENT=Orbitrap
COMMENT=DB#=CCMSLIB00010124332; origin=GNPS
NUM_PEAKS=182
COMPOUND_NAME="methylethyl 2-amino-6-(hydroxymethyl)-4-[4-(methoxycarbonyl)phenyl]-8-oxo-4H-p yrano[3,2-b]pyran-3-carboxylate "
PRECURSOR_MZ=416.134
COLLISION_ENERGY=205060
PARENT_MASS=415.12672354800924
55.01836 0.02145758428017491
57.033989 0.0033747573523555652
67.018204 0.04004801616659422
68.025963 0.005296747394086642
68.997421 0.006456850220074097
69.033722 0.0037633774057260526
73.934731 0.003174210213702647
78.729401 0.00265029280841799
82.09185 0.0030331555276644703
83.012993 0.023205894742498432
85.028381 0.01252124216402837
91.054268 0.01623568222970036
92.354828 0.004139523235161191
95.013039 0.01242240792823291
96.020607 0.005370633182011401
97.028458 0.005087564254247713
101.023232 0.02327690186336119
103.054497 0.010298911192161581
105.069923 0.0286811194944293
107.985229 0.003286478229120788
111.945877 0.002700189704159386
113.022751 0.0050155975776976225
115.054291 0.029719358748125268
117.069527 0.006469324444009446
118.041023 0.0061085315055716604
119.04937 0.004883178892845457
121.064743 0.014253240179667207
124.015244 0.014531511328994223
125.023132 0.003933218762384266
128.062027 0.08008451766494043
129.069778 0.042931481007034505
131.048904 0.012956880446078248
135.043808 0.007180355208324337
139.052917 0.002918008845184326
141.06958 0.02054216815445776
142.065826 0.003463996031277677
142.077759 0.004336232151064771
143.033768 0.010875604160249639
143.049316 0.004772829988801985
143.073837 0.004702782423626564
143.085587 0.054786791524052705
144.057007 0.0041030601190424785
145.028549 0.03400473444776131
145.064804 0.03813945990448583
146.036057 0.004137604123786522
147.044342 0.004531981511281017
149.023666 0.00469990375656456
149.059631 0.11455847484380832
152.061569 0.0035004591473963894
153.069794 0.019671851146045336
155.035904 0.005330331843143351
155.049072 0.03588354448356233
155.085159 0.004330474816940764
156.043686 0.004783385101362665
156.056717 0.019692961371166696
157.027939 0.00442259216292488
157.051788 0.0046231393015777975
157.064804 0.05238406408296702
157.93721 0.003772972962599398
159.043976 0.006433820883578068
161.059448 0.011500274912704422
163.03862 0.0395001098691262
165.069611 0.0037077231758606494
167.049194 0.00636665198546465
168.0569 0.004432187719798224
169.028946 0.0045780401842730745
169.065018 0.01146381179658571
170.060028 0.0052075087151645305
171.043839 0.020258139671006738
171.080139 0.09363248441441675
173.059677 0.015282843432177165
175.039291 0.012925215108396209
177.054779 0.049489084574278724
181.064575 0.011704660274106677
183.043671 0.05817498265603095
184.051865 0.17927378906471148
185.059708 0.04356574731636263
186.055054 0.007245604995063086
187.038834 0.007168840540076323
187.075302 0.018645126560597382
189.054489 0.04895077383368405
194.060623 0.005862885249614019
195.044556 0.00442259216292488
195.064941 0.004918682453276835
196.038483 0.007052734301908844
197.060074 0.012053938544296448
199.039856 0.0041107365645411545
199.074951 0.013157427584731166
200.049088 0.003392029354727587
201.054398 0.037813210970792085
202.062164 0.005553908318292298
203.070053 0.006374328430963327
205.049362 0.007562258371883483
206.058914 0.004543496179529031
208.018692 0.01582979017395785
210.054611 0.004950347790958875
211.038895 0.07983983096467012
212.047333 0.006885771612312634
213.054413 0.13326789163545713
214.050323 0.014661051346784386
215.034103 0.010904390830869673
215.070343 0.07275063354664256
217.049057 0.003238500444754061
220.022369 0.003590657382005836
222.054825 0.013398276062252135
223.061737 0.004590514408208423
224.070572 0.005331291398830686
225.054855 0.02951305427534834
226.061691 0.015974683082745366
227.034042 0.006684264917972382
227.071121 0.004074273448422442
228.042206 0.025314998143259746
229.049179 0.07114145865898254
230.057175 1.0
231.065536 0.06226652810682542
233.044678 0.033408850365926564
234.054749 0.004602029076456437
240.065521 0.007615033934686883
241.048828 0.005639308774465072
242.056763 0.01486735581956131
243.065079 0.11990224046657436
244.072968 0.052801470806957546
247.061646 0.004312243258881408
248.158096 0.003401624911600932
250.049591 0.027897162497876982
251.05777 0.004596271742332431
252.064468 0.01850311231887187
253.049545 0.03523872306167352
254.05455 0.015162898971260347
256.022705 0.0031377470975839346
257.044159 0.08214852194839702
257.079681 0.013096016020741756
258.051636 0.02380945526983186
259.061554 0.0037652965171007216
260.067017 0.004661521529071179
261.075043 0.019218940861623433
262.047241 0.04101236963236543
266.044769 0.005707437228265824
268.062897 0.004948428679584205
269.042999 0.004511830841846991
271.059387 0.050505254047166
272.06778 0.030076313463813717
273.075134 0.012305342134378098
274.046692 0.17226615388010735
275.054504 0.08527571393342027
278.043732 0.015600456364684896
280.062378 0.011436944237340343
281.040741 0.0034054631343502706
283.057129 0.00499160868551426
285.075409 0.102874924794823
288.085541 0.004650966416510499
289.070221 0.33577060477916304
290.078064 0.21674443865512513
296.055145 0.11670500091637569
297.064056 0.005660418999586431
298.07135 0.012564422169958423
301.069305 0.014644738900099697
306.038788 0.012925215108396209
309.063385 0.0039217040941362516
310.033905 0.0068627422758166055
310.070709 0.007231211659753068
311.05481 0.0037902449649714195
312.050079 0.04247185383280126
313.070099 0.030081111242250387
324.049164 0.017869805565231076
327.036835 0.16634569528925328
328.08139 0.020668829505185917
329.064972 0.16957939795557064
330.09671 0.15151672169718533
337.057495 0.0046269775243271355
338.06662 0.004484963282601624
339.048431 0.004148159236347202
340.041687 0.0048380797755407335
342.06189 0.0070018778504801135
355.071014 0.004473448614353609
356.075897 0.8475477115076635
357.059906 0.021566973628531046
371.112213 0.041514217256841394
373.078247 0.048392312423655354
374.086304 0.398199297797148
384.107117 0.011720972720791365
416.13327 0.9137752854918059
END IONS

BEGIN IONS
CHARGE=1+
PRECURSORTYPE=M+H
FORMULA=C15H10O4
ONTOLOGY=
INCHIKEY=ZQSIJRDFPHDXIC-UHFFFAOYSA-N
INCHI=InChI=1S/C15H10O4/c16-10-3-1-9(2-4-10)13-8-19-14-7-11(17)5-6-12(14)15(13)18/h1-8,16-17H
SMILES=O=c1c(-c2ccc(O)cc2)coc2cc(O)ccc12
IONMODE=positive
INSTRUMENTTYPE=LC-ESI-Orbitrap
INSTRUMENT=Orbitrap
COMMENT=DB#=CCMSLIB00010118665; origin=GNPS
NUM_PEAKS=91
COMPOUND_NAME=daidzein
PRECURSOR_MZ=255.065
COLLISION_ENERGY=205060
PARENT_MASS=254.05772354800925
55.018379 0.005782797057674285
55.934689 0.00039214937837693954
65.039017 0.004816888137983545
68.997437 0.00803313581888806
70.635361 0.0003569925437376135
72.991318 0.00031118821060752014
73.932793 0.00045844512369681145
79.054642 0.00040932600330072455
81.033722 0.005615952765285941
82.041771 0.0005167050210991232
89.038849 0.0018631113396863407
91.054352 0.04483983048378818
92.35537 0.0004663805235154022
96.020638 0.0004498065871854342
103.054222 0.0018292603303336182
105.033493 0.004617498661529081
105.045807 0.00035839881712318656
107.049156 0.0006722991264028833
109.027786 0.0004665814197133412
110.422493 0.0003333872404797803
111.044006 0.000613938780901602
115.054047 0.0028764317620906866
118.041817 0.0012334022072465268
119.049179 0.02065946185935458
119.058907 0.0007046434142710632
119.117737 0.0003269585621457321
121.028343 0.008563903573842914
123.924004 0.00034604370094993767
127.039642 0.0004658782830205547
128.062057 0.012417293546510985
129.058853 0.0006872658931493392
129.069778 0.021338089215992544
131.049149 0.006332248159037466
131.085754 0.0045308119521184
133.028412 0.01425921033731476
134.036163 0.004358945254781581
135.043945 0.0004988252594825517
137.023376 0.15961474136121237
141.069901 0.004454772741198486
143.049149 0.0007719436405806302
143.085495 0.010987816650075989
143.097061 0.0006417629043161543
145.028427 0.028438966228344645
145.064209 0.0007894216098013237
147.044388 0.0006265952413717595
149.009705 0.00042439321814615
149.023239 0.013231827181054685
152.06192 0.009048465203271796
153.069855 0.04013916079631235
154.077927 0.0003932543074656041
155.034073 0.0006234813503037048
155.048019 0.0005026422872433928
155.061081 0.0006261934489758814
155.085541 0.0019678787069115325
157.064774 0.03408284356514411
159.043503 0.0004898853786742659
159.080215 0.0005216269779486288
162.031509 0.0003684436270201368
165.070114 0.005932866517534723
167.033585 0.0018140926673892233
167.048111 0.000749141922114553
168.056931 0.000818250214205571
169.064743 0.006220851217280287
170.072693 0.0005034458720351488
171.044449 0.0008262860621231313
171.080307 0.028418273919956927
175.039307 0.00041685961072343726
181.064667 0.07620545252370826
182.072723 0.004308319412900951
182.25354 0.00038722742152743386
184.051804 0.010216375249990207
185.059509 0.010027331927729602
187.03981 0.0004863696952103333
187.075317 0.0005459354178992485
193.047867 0.00038290815327174523
197.059464 0.007186659688872058
198.067886 0.005202709286125405
199.075363 0.2475349534272389
209.056778 0.010043604519762661
210.067368 0.0043348377110289
211.075226 0.007284496137268354
212.047028 0.002347873865313162
213.054626 0.0022078492153496747
213.609467 0.0003941583403563296
213.922806 0.0006779242199451755
225.05397 0.001307934696681898
226.062622 0.0032121293088467656
227.070129 0.10486630860267654
237.054474 0.04617167182802482
254.055679 0.000509070965577441
255.064957 1.0
END IONS

BEGIN IONS
CHARGE=1+
PRECURSORTYPE=M+H
FORMULA=C15H10O4
ONTOLOGY=
INCHIKEY=ZQSIJRDFPHDXIC-UHFFFAOYSA-N
INCHI=InChI=1S/C15H10O4/c16-10-3-1-9(2-4-10)13-8-19-14-7-11(17)5-6-12(14)15(13)18/h1-8,16-17H
SMILES=O=c1c(-c2ccc(O)cc2)coc2cc(O)ccc12
IONMODE=positive
INSTRUMENTTYPE=LC-ESI-Orbitrap
INSTRUMENT=Orbitrap
COMMENT=DB#=CCMSLIB00010118666; origin=GNPS
NUM_PEAKS=71
COMPOUND_NAME=daidzein
PRECURSOR_MZ=255.065
COLLISION_ENERGY=205060
PARENT_MASS=254.05772354800925
55.018398 0.006222347462781251
55.934971 0.0005397931029111585
59.14962 0.00043557281861351623
65.039009 0.005257460211145198
68.997513 0.008806330815856493
81.033607 0.004299086727277748
89.038887 0.0023738435407142347
91.054329 0.047383554010817105
103.054337 0.0009446379300945276
105.033653 0.004830100404066007
109.028412 0.0007622524325736534
111.0438 0.000689751365236163
115.053871 0.0032345105080526454
116.812622 0.0005232254761953649
117.033287 0.0006802639208775462
118.041267 0.0007401622636192618
119.049133 0.020966260807013345
121.028488 0.00984102866553431
127.039711 0.0005616000645712631
128.06189 0.013767981008118844
129.069839 0.0213199867175779
131.048828 0.007113884025196953
131.085846 0.003952299395423228
133.028427 0.015278467112198942
134.036163 0.004576346668384791
137.023315 0.16399217498245885
138.031982 0.00046219430427650094
141.069977 0.00484142869583749
143.085526 0.01084981304778486
145.015213 0.0010389459590921224
145.02832 0.027208574384041836
145.064362 0.0007050445591276649
149.023254 0.014736408350933487
152.062012 0.008844563800585247
153.069763 0.044996399727271374
154.077545 0.0006935746637090384
155.085861 0.0007254354843163341
157.064743 0.030550278852982136
159.04422 0.0008058663558938624
159.079697 0.0009260878523187243
165.069366 0.005149699835668968
167.033798 0.0027601382901218004
168.056366 0.0008627910220455638
169.064835 0.005318774590358349
170.072601 0.0010572128295736386
171.044601 0.0008795002524085011
171.080353 0.03169981726049336
181.064529 0.08306484101804526
182.071899 0.004844543976074648
184.051743 0.00946223890942535
185.059357 0.009618852543166101
187.03714 0.0005587679916283924
187.075027 0.0006568993190988627
193.048904 0.0006927250418261772
197.059143 0.008871751700836806
198.067551 0.005156071999790427
199.075256 0.2525162614088288
209.057007 0.012701139130539446
210.06691 0.005650693539262798
211.075119 0.005353609087555659
212.046753 0.001954271934227938
213.054581 0.0028543047154722515
213.921738 0.0005695298688113012
220.17894 0.0004371304587320951
225.05336 0.0008408424567383157
226.062378 0.004329106700472178
227.069992 0.10450759809769661
228.529388 0.0006052139878914721
237.054321 0.049607439289206336
255.06485 1.0
256.120087 0.0007548890429221895
END IONS

BEGIN IONS
CHARGE=1+
PRECURSORTYPE=M+H
FORMULA=C24H21N3O4
ONTOLOGY=
INCHIKEY=CGDWTQJAKSBXSJ-UHFFFAOYSA-N
INCHI=InChI=1S/C24H21N3O4/c1-15-19-6-4-5-7-20(19)24(29)27(26-15)18-11-9-17(10-12-18)25-23(28)16-8-13-21(30-2)22(14-16)31-3/h4-14H,1-3H3,(H,25,28)
SMILES=COc1ccc(C(=O)Nc2ccc(-n3nc(C)c4ccccc4c3=O)cc2)cc1OC
IONMODE=positive
INSTRUMENTTYPE=LC-ESI-Orbitrap
INSTRUMENT=Orbitrap
COMMENT=DB#=CCMSLIB00010120304; origin=GNPS
NUM_PEAKS=117
COMPOUND_NAME="(3,4-dimethoxyphenyl)-N-[4-(4-methyl-1-oxo(2-hydrophthalazin-2-yl))phenyl]carb oxamide "
PRECURSOR_MZ=416.16
COLLISION_ENERGY=205060
PARENT_MASS=415.15272354800925
50.015518 0.0008894134227024869
51.02346 0.0032367952410026716
53.039051 0.015072286928676267
55.01828 0.00348154668653199
55.054859 0.0006135061566846363
65.039017 0.008680073589737986
66.046783 0.020343975758601602
67.054428 0.0029960739016061987
68.025963 0.0024272089205469227
68.997421 0.009176086652241986
69.033836 0.005730035900495439
71.064613 0.0006186212913917088
73.941597 0.0005905655525438263
75.044342 0.0007024784997712915
77.03878 0.00586829954166843
78.046593 0.0013700810810852704
79.018188 0.003929508483605916
79.054497 0.06990808102931391
80.049927 0.0008261717572332268
81.033791 0.006857380589117814
81.070061 0.013968502860522833
82.041389 0.004343834394878789
83.049438 0.002879355827835726
85.028526 0.0013350501585459253
89.792503 0.0005646798708443987
91.054413 0.0053352405035586616
92.025673 0.004457607391090644
92.049301 0.000713483789595599
94.041351 0.03830445374778945
95.012947 0.0030063041710203437
95.049156 0.012118839149629005
97.02829 0.0023590071244526225
98.036247 0.0119833655819326
99.04393 0.0005967657158251262
103.05442 0.002261199548690115
105.033386 0.008097413245377817
105.044563 0.005210927229768596
106.028259 0.0010114016352620646
106.052834 0.0009887710392853196
107.012947 0.002902606440140601
107.035149 0.0005549146136763512
107.049004 0.010924377693486557
107.060966 0.000728674189634784
108.019562 0.000698913405884544
108.056801 0.0025147862268952853
109.028397 0.0341878553371703
109.064743 0.037273831606355355
109.073151 0.0013393902728428353
110.035927 0.002103870405427127
111.007683 0.00972433609039094
111.043701 0.0007683552346351041
113.060043 0.0027404721703346057
116.04924 0.0027499274193385883
121.028442 0.008570795711905072
122.036102 0.05742792736446714
124.051826 0.11772715034450432
125.059189 0.0008292718388738767
126.031021 0.029121236907773965
130.028564 0.0034375255272347596
130.065155 0.002329246340702382
133.02919 0.0009937311699103595
133.039581 0.004442882003297557
134.047668 0.0012477828603616277
135.044022 0.0022134582914241046
137.0233 0.0034624811844419924
137.059723 0.004034446247141919
139.075241 0.024671224716702914
141.054276 0.00937526689765375
143.06105 0.004337944239761554
144.044083 0.003000879028149206
145.0513 0.0007488247202990091
146.059937 0.019982041227055714
149.023376 0.0013513255871593379
151.038864 0.03100112641466413
151.050949 0.0019408061111289366
153.054276 0.0008291168347918442
154.026108 0.0066628504661670265
155.070129 0.04795671294003528
163.038422 0.001402166926065998
164.505844 0.000722474026353484
165.054459 1.0
165.604904 0.0008706579287765543
166.032516 0.0008697279042843594
166.060776 0.0006093210464697588
167.085861 0.0007505297652013666
177.070206 0.0013468304687803954
188.176376 0.0005350740911761911
193.089233 0.0043525146234726095
194.09668 0.0009173141574683369
204.080811 0.0012809537339165827
205.075668 0.0008266367694793243
206.083817 0.0007463446549864891
207.091171 0.00227887001404182
219.079056 0.0013102495054207253
221.070557 0.0007899008020376217
223.084579 0.0020547341114228244
233.07048 0.0010619329660046598
233.095215 0.0010388373577818171
234.079697 0.0012682433991899177
234.102493 0.008074317637154974
235.087463 0.004113033316732396
236.081467 0.0008257067449871292
237.067383 0.0007947059285806292
247.579025 0.0006358267444973164
249.089981 0.0006885281323883664
250.097137 0.06946569937919315
251.105682 0.004011040630755011
260.081635 0.003867971863039013
261.06543 0.018814240473022856
262.059937 0.0006823279691070664
278.091797 0.07519077514906355
372.133545 0.0007127087691854365
383.101929 0.0032998819023898995
398.150543 0.0007984260265494091
400.127533 0.005621068030826592
401.136169 0.001166405717294565
416.159729 0.7563993047756913
END IONS

BEGIN IONS
CHARGE=1+
PRECURSORTYPE=M+H
FORMULA=C36H38N4O2
ONTOLOGY=
INCHIKEY=RVNQGBQBTQGUTJ-UHFFFAOYSA-N
INCHI=InChI=1S/C36H38N4O2/c41-35(31-13-9-27(10-14-31)23-39-21-17-29-5-1-3-7-33(29)25-39)37-19-20-38-36(42)32-15-11-28(12-16-32)24-40-22-18-30-6-2-4-8-34(30)26-40/h1-16H,17-26H2,(H,37,41)(H,38,42)
SMILES=O=C(NCCNC(=O)c1ccc(CN2CCc3ccccc3C2)cc1)c1ccc(CN2CCc3ccccc3C2)cc1
IONMODE=positive
INSTRUMENTTYPE=LC-ESI-Orbitrap
INSTRUMENT=Orbitrap
COMMENT=DB#=CCMSLIB00010114953; origin=GNPS
NUM_PEAKS=139
COMPOUND_NAME="[4-(2-1,2,3,4-tetrahydroisoquinolylmethyl)phenyl]-N-(2-{[4-(2-1,2,3,4-tetrahyd roisoquinolylmethyl)phenyl]carbonylamino}ethyl)carboxamide "
PRECURSOR_MZ=559.307
COLLISION_ENERGY=205060
PARENT_MASS=558.2997235480093
53.03915 0.0009710037583282133
55.018471 0.0006906929202075762
60.553429 0.0006193729572238062
65.039108 0.016257882463531822
66.046967 0.008728657354929642
67.054657 0.0060319443283384025
73.95771 0.0006734475193221563
77.039223 0.001105751721178697
79.054604 0.004287820479468912
81.045212 0.0013343263566430745
82.40519 0.0007424291228638356
85.039871 0.006936012547636766
89.038872 0.002676398528938075
90.04705 0.0009683731039558611
91.054497 0.14333266495225946
92.049889 0.0014699512042843422
93.070198 0.0026180856903509353
95.049553 0.005041210662217548
103.054359 0.006380652180140197
104.062149 0.0027927319111820934
105.033638 0.1335738141156237
105.070007 0.14324293040866923
106.065247 0.028436789175266472
107.048843 0.0015406865774075895
109.065018 0.00945457181423371
109.084106 0.0006687708004379748
112.480026 0.0007466673993526252
115.054398 0.023560140558786063
116.049553 0.005199488366954071
116.061974 0.0046837339625079135
117.057678 0.010566315581482766
117.069962 0.0870878129967187
118.041389 0.06575364447933796
118.065262 0.01704839410242365
118.077927 0.002537704584529063
119.049294 0.5530626370497854
119.085541 0.006833709322045293
120.080887 0.02226278951082105
122.036407 0.004122966138801509
129.058563 0.0006654094087399691
129.06987 0.0010943522188985042
130.065262 0.12879099217175718
131.04953 0.0067235141333367625
131.073044 0.02003667132195059
132.080902 0.2587555484885137
133.065048 0.0026810752478222564
134.060059 0.015654001137611867
135.044113 0.0044040077142477995
136.076065 0.0014890965222164607
142.065186 0.011398771542867097
143.073151 0.012491808434579426
144.044479 0.005561641785547886
144.080856 0.016498879633532307
145.08873 0.3508721496129138
146.060486 0.009972226135726566
146.096512 0.017490051742048554
147.091904 0.012262941504184787
148.075851 0.03273688604180636
153.069656 0.0010015485785405246
157.076218 0.003945250821202607
158.083878 0.01748259822132689
159.091843 0.012217343495064016
160.075882 0.05136542653722288
160.098633 0.01466867492770085
160.112503 0.0010977136105965097
161.083908 0.006806379746065856
161.107117 0.011180281082496737
162.091492 0.016259197790717998
165.069702 0.008776301428562241
166.077866 0.011672359597591723
175.062897 0.0013770014164612321
175.087463 0.0010782759977341298
176.094421 0.0009489354910934811
177.079727 0.0009650117122578556
177.102692 0.0047779990775172
178.077606 0.010456266540239366
179.085449 0.006499762364221697
180.094238 0.0011830637302328246
181.101929 0.003256019375646337
189.067307 0.0010741838687104708
190.07785 0.0010281474171943078
191.086319 0.003753213052020898
191.740311 0.0006696476852287588
192.094696 0.0013531793796449317
193.102203 0.005373696145389836
195.117447 0.0007536824776788976
196.088089 0.004864079934479169
203.08374 0.004533055925958186
204.081573 0.0029124266851241172
205.087448 0.007614429080773365
207.080978 0.002547350317227688
207.102295 0.0010382315922883244
209.096115 0.053834003370745134
217.088882 0.0013183962829438308
218.096832 0.007635912758147575
219.082291 0.0012042551126767726
219.104248 0.00235765090748807
220.112122 0.04924891894720043
221.095673 0.009750666578588462
222.127808 0.022449273676327795
230.097336 0.0008536473438282802
232.112244 0.0033890135689152528
234.09201 0.0013452874165278753
235.075729 0.002728865468919988
237.092682 0.0050280573903557875
238.122437 0.0009752420348170029
247.124588 0.0007767737771695445
248.107056 0.033252640446252514
248.13591 0.0011384887533679683
249.139801 0.004096513447612857
250.12265 0.11931522897507951
251.094269 0.01326405164032992
252.10199 0.018825839573342936
253.110123 0.0066070346036276135
255.102417 0.0014972807802637786
263.154083 0.001468197434702774
265.132141 0.006124894116161513
266.117218 0.0030116608139478464
268.13446 0.004799921197286802
270.112488 0.002464630851963725
277.133453 0.005034487878821537
290.164795 0.0014339989278621958
291.148956 0.005468545850259646
292.180756 0.04553779636513716
293.164612 0.013103727871081567
295.144928 0.0013175193981530468
308.176178 0.0014097384486505035
354.149323 0.003429350269291319
379.17865 0.001263298688589566
383.174042 0.008393979659780393
389.5625 0.0007165610215357058
408.203949 0.0022888154514115215
419.703033 0.0007716586158899708
424.200989 0.0008260254729185824
426.217255 0.046839385689590965
428.232025 0.010375885434417495
541.293518 0.0007893424591707826
557.292542 0.0027643793029467423
559.306946 1.0
END IONS

BEGIN IONS
CHARGE=1+
PRECURSORTYPE=M+H
FORMULA=C10H10O3
ONTOLOGY=
INCHIKEY=AFDXODALSZRGIH-UHFFFAOYSA-N
INCHI=InChI=1S/C10H10O3/c1-13-9-5-2-8(3-6-9)4-7-10(11)12/h2-7H,1H3,(H,11,12)/b7-4+
SMILES=COc1ccc(C=CC(=O)O)cc1
IONMODE=positive
INSTRUMENTTYPE=LC-ESI-Orbitrap
INSTRUMENT=Orbitrap
COMMENT=DB#=CCMSLIB00010121628; origin=GNPS
NUM_PEAKS=54
COMPOUND_NAME=4-Methoxycinnamic acid
PRECURSOR_MZ=179.07
COLLISION_ENERGY=205060
PARENT_MASS=178.06272354800925
53.039108 0.002651777032872809
55.018391 0.001718446755085028
56.942749 0.0005391351397361497
61.011101 0.0017416609648004129
66.04689 0.010755768359091682
67.935349 0.0008834792505143584
68.026283 0.0008999970535810746
71.929764 0.0009136874849516862
72.937599 0.002094040763557024
77.039093 0.000915324384354694
79.021698 0.004964715889322981
79.054588 0.07419559043110276
81.03405 0.001608328067973587
83.929787 0.0006244027177291979
89.039192 0.0018525236970950393
90.046577 0.004618288452031854
90.947792 0.0011214249000970533
91.054489 0.005651618402439754
92.025497 0.0006465752641881232
94.04174 0.004830192520203059
95.049294 0.0028287109774343
96.937813 0.0021004395521324187
102.046532 0.0022194867814420848
102.948112 0.0021333263492292137
103.054283 0.06981108097562776
105.044762 0.00090074109876426
105.069962 0.05353509259344687
107.049049 0.0005749981175656865
107.950531 0.0005124983221781119
109.064934 0.014196828522287576
114.948303 0.0009053541789000095
115.054237 0.0032230549245225687
118.041397 0.11181302680259082
118.942703 0.0009083303596327511
119.950653 0.0008488067449779182
125.961662 0.0006452359828583895
131.049347 0.0020608563483869545
132.057388 0.0018162142921555912
132.958893 0.0008505924534175632
133.064957 0.7256397374889546
134.072159 0.0010739548174098239
134.604752 0.0005547600885830433
134.955917 0.0009357112223739744
137.048615 0.0007794617339050378
137.060028 0.013652782684342403
140.951096 0.0007746998447326511
146.035706 0.0033797508401014163
150.951004 0.0019752911523206323
155.975342 0.0042165040531117306
160.532974 0.0008660685932278198
161.059875 1.0
161.590073 0.0008471698455749103
168.960464 0.0005447898831283588
179.070526 0.016251732509209048
END IONS

BEGIN IONS
CHARGE=1+
PRECURSORTYPE=M+H
FORMULA=C6H6N4S
ONTOLOGY=
INCHIKEY=UIJIQXGRFSPYQW-UHFFFAOYSA-N
INCHI=InChI=1S/C6H6N4S/c1-11-6-4-5(8-2-7-4)9-3-10-6/h2-3H,1H3,(H,7,8,9,10)
SMILES=CSc1ncnc2[nH]cnc12
IONMODE=positive
INSTRUMENTTYPE=LC-ESI-Orbitrap
INSTRUMENT=Orbitrap
COMMENT=DB#=CCMSLIB00010115335; origin=GNPS
NUM_PEAKS=23
COMPOUND_NAME=6-(Methylthio)purine
PRECURSOR_MZ=167.039
COLLISION_ENERGY=205060
PARENT_MASS=166.03172354800924
56.38472 0.0011244255137076954
58.236198 0.001170680734927933
71.082901 0.0013169775462467026
86.747177 0.001434673948721484
92.024437 0.0014436835175136301
92.361557 0.0013811639037932513
94.040314 0.006446310390264881
99.001228 0.005826959296616223
106.040489 0.01047497102012973
109.222153 0.001474742681505622
119.0354 0.05332939594584822
119.818947 0.001257953342493349
121.05101 0.010900516943325726
124.050308 0.01019357115750744
125.004349 0.00942636387024858
126.012154 0.1308329205018319
133.051071 0.014080991528337137
134.05867 0.082583794938652
137.045273 0.012732555292387206
140.027908 0.006138701992990538
151.06131 0.008874326698855134
152.015045 0.11665624168564115
167.038574 1.0
END IONS

BEGIN IONS
CHARGE=1+
PRECURSORTYPE=M+H
FORMULA=C19H14O4
ONTOLOGY=
INCHIKEY=GZPDVRJCPPBBSD-UHFFFAOYSA-N
INCHI=InChI=1S/C19H14O4/c20-18(12-5-2-1-3-6-12)22-13-9-10-15-14-7-4-8-16(14)19(21)23-17(15)11-13/h1-3,5-6,9-11H,4,7-8H2
SMILES=O=C(Oc1ccc2c3c(c(=O)oc2c1)CCC3)c1ccccc1
IONMODE=positive
INSTRUMENTTYPE=LC-ESI-Orbitrap
INSTRUMENT=Orbitrap
COMMENT=DB#=CCMSLIB00010117773; origin=GNPS
NUM_PEAKS=21
COMPOUND_NAME="4-oxo-1,2,3-trihydrocyclopenta[1,2-c]chromen-7-yl benzoate "
PRECURSOR_MZ=307.096
COLLISION_ENERGY=205060
PARENT_MASS=306.0887235480092
50.01561 0.0016916589597921346
51.023392 0.008296175188267935
53.002739 0.0010230875941339675
53.039059 0.07068415026203373
54.21629 0.0007230699784207513
55.018242 0.0017544149381248074
74.986794 0.0008235345928568283
77.038589 0.007298410181882239
81.033661 0.009650107896243449
83.456062 0.000947945567446162
95.049149 0.034625611045052185
103.727432 0.0008995023561016427
104.239677 0.0007115096666226274
104.298843 0.0009014290747346634
105.033417 1.0
118.668098 0.0010459329722112124
145.871658 0.0007483925661690228
156.045441 0.0007885784119434536
201.054413 0.003940690095565244
229.047318 0.0008928964636455718
307.095703 0.5501673492755538
END IONS

BEGIN IONS
CHARGE=1+
PRECURSORTYPE=M+H
FORMULA=C13H16O5
ONTOLOGY=
INCHIKEY=BDPRQDJNPJRLOB-UHFFFAOYSA-N
INCHI=InChI=1S/C13H16O5/c1-15-10-7-5-9(6-8-11(14)16-2)12(17-3)13(10)18-4/h5-8H,1-4H3/b8-6+
SMILES=COC(=O)C=Cc1ccc(OC)c(OC)c1OC
IONMODE=positive
INSTRUMENTTYPE=LC-ESI-Orbitrap
INSTRUMENT=Orbitrap
COMMENT=DB#=CCMSLIB00010122448; origin=GNPS
NUM_PEAKS=71
COMPOUND_NAME="methyl (2E)-3-(2,3,4-trimethoxyphenyl)prop-2-enoate "
PRECURSOR_MZ=253.107
COLLISION_ENERGY=205060
PARENT_MASS=252.09972354800925
53.873619 0.0011620440564864287
54.701328 0.0012885287036723068
55.01828 0.003494205657577534
65.038773 0.002056586539988256
66.04673 0.001808461338487448
68.997391 0.007771539662625078
72.075813 0.0013864870261737102
79.054558 0.011548855636882493
84.959747 0.0015920918569184142
91.054329 0.03154796217086407
92.388779 0.0018229936171002938
98.984138 0.003148660366116539
103.054413 0.012446089283090402
104.062141 0.0031082929255253017
104.294968 0.001965625240522667
105.069656 0.013222758840065815
107.049057 0.06129930411914746
112.71389 0.001784779106673922
115.054131 0.001892963847458439
118.041061 0.01591230684852468
119.049011 0.017651336189195198
120.057213 0.0016674444126887245
121.064827 0.013414907857280106
130.041336 0.0022654207659802586
131.049377 0.010134380518565524
132.057007 0.005968460649549795
132.984085 0.0014618395819440207
133.028366 0.006600883885479186
133.064941 0.02925885917307029
135.043976 0.05583355266309388
136.051712 0.005824752561044989
145.027969 0.0035528730045701327
146.036545 0.01011500414708173
147.044067 0.03007858733334302
148.051773 0.008122467279498238
149.05954 0.009191397106354212
150.067459 0.018756327596312676
151.075302 0.0035555641672762152
152.046814 0.007923321239248132
159.044281 0.00200976030890242
160.051666 0.012469771514903928
161.022888 0.001976389891346997
161.059372 0.01204779720259019
161.710876 0.0014575337216142885
162.031281 0.0028639353518130095
162.066879 0.019278413161292685
163.038818 0.31058385851373543
164.808731 0.0014117839556108858
165.054306 0.011145181230970115
165.091095 0.007038466941488202
166.063034 0.012027344366023963
167.070312 0.010506299204546127
173.022766 0.0021518536997835766
174.031189 0.0018768168712219439
175.038589 0.01435466187424412
177.054459 0.106123848384199
178.062164 0.08705373121635711
179.069687 0.0031734190630124982
181.049545 0.006349529288731079
190.062469 0.023389971543645544
191.033722 0.6094972208362734
192.039749 0.001557644974280558
193.085938 0.010478311112402869
195.8974 0.0016690591103123741
205.049515 0.03766874262957814
206.039169 0.0033128212911875724
206.057159 0.23587610532780245
211.096115 0.04750817171555702
221.080673 1.0
222.083969 0.0026486423353264082
253.106201 0.009080521202863612
END IONS

BEGIN IONS
CHARGE=1+
PRECURSORTYPE=M+H
FORMULA=C21H23N3O2
ONTOLOGY=
INCHIKEY=OAUXOLFBALGKAQ-UHFFFAOYSA-N
INCHI=InChI=1S/C21H23N3O2/c1-2-16-6-7-19-18(13-16)17(14-21(25)26-19)15-23-9-11-24(12-10-23)20-5-3-4-8-22-20/h3-8,13-14H,2,9-12,15H2,1H3
SMILES=CCc1ccc2oc(=O)cc(CN3CCN(c4ccccn4)CC3)c2c1
IONMODE=positive
INSTRUMENTTYPE=LC-ESI-Orbitrap
INSTRUMENT=Orbitrap
COMMENT=DB#=CCMSLIB00010116095; origin=GNPS
NUM_PEAKS=81
COMPOUND_NAME=6-ethyl-4-[(4-(2-pyridyl)piperazinyl)methyl]chromen-2-one
PRECURSOR_MZ=350.186
COLLISION_ENERGY=205060
PARENT_MASS=349.1787235480092
50.015511 0.0007261102218754869
51.02338 0.001041440801423455
54.786839 0.0006757706476698334
56.050041 0.0009481709409904693
57.760151 0.0006873204201066284
58.117088 0.000603203209529216
65.092346 0.0007696942688067887
68.049843 0.004136126053780535
70.065407 0.000982384417831541
78.034027 0.0159103563322717
80.049721 0.009765659475662124
83.970802 0.0006559399063160911
91.054298 0.004707077068580588
93.057266 0.0011231608894196458
94.052681 0.004562813873237979
94.065193 0.029976889559114678
95.060448 0.11693360079410134
96.044449 0.09213885441511843
103.054459 0.0007980238993121348
104.049156 0.007138631046877912
105.044662 0.003727525613799581
105.069733 0.002588238627015354
106.064613 0.0014199682490218105
107.060318 0.015461222728644634
108.067749 0.0014576684496173866
117.069847 0.006104817453667434
118.065117 0.0027704199431881947
119.050537 0.001268513685935537
119.060371 0.032016840875734254
119.070236 0.0012216608354843877
119.085777 0.0014350047452131097
120.068199 0.002916644420642712
121.075996 1.0
121.42083 0.000655068225377465
123.054893 0.0024646778539651132
128.062027 0.001119892085899798
129.069427 0.0063024711065008876
130.064941 0.001569679450230832
131.049683 0.0016171860613859509
131.060638 0.0028013646165094192
131.085373 0.01626338711241524
132.068008 0.011492677335314954
133.064789 0.0028628181226825547
133.076111 0.00512635560005971
134.071228 0.0008091378312796167
135.091858 0.0016062900496531254
141.070175 0.004406782985223919
143.085129 0.0014204040894911236
144.057358 0.0026592806235133755
145.076111 0.00453274088085538
145.101074 0.0011647836542390388
146.071762 0.0010009076377773443
147.091583 0.12973619665993658
149.107651 0.005024368930240464
154.078384 0.0015485411874691507
157.100769 0.0015158531522706743
157.965652 0.0008019464635359519
158.072617 0.0006437363731753266
159.080399 0.08340286804820832
161.095062 0.00795452440543188
162.102356 0.004523588230999807
164.118286 0.0015677181681189234
169.101837 0.0010728213152139921
172.63797 0.0006927684259730411
173.083099 0.004332472185206049
173.096588 0.004061815253762665
173.888977 0.0006738093655579248
174.090561 0.0013358510384443982
174.127335 0.0013513233751050104
175.075409 0.009462314509020263
185.095963 0.0034849803926268867
187.075394 0.004434240934790639
188.082275 0.0007256743814061739
201.0914 0.0033588045767607684
202.122986 0.00612443027478652
213.091431 0.003832563166904018
230.117249 0.014242612776445437
256.133148 0.0033117338060749623
307.143951 0.002840808178982247
341.181793 0.0032993123526995414
350.18573 0.5230111782184367
END IONS

BEGIN IONS
CHARGE=1+
PRECURSORTYPE=M+H
FORMULA=C22H29N7O
ONTOLOGY=
INCHIKEY=NZPAMSHQYRPUFB-UHFFFAOYSA-N
INCHI=InChI=1S/C22H29N7O/c30-19-7-5-6-18-17-12-16(14-29(18)19)13-28(15-17)22-24-20(26-8-1-2-9-26)23-21(25-22)27-10-3-4-11-27/h5-7,16-17H,1-4,8-15H2
SMILES=O=c1cccc2n1CC1CC2CN(c2nc(N3CCCC3)nc(N3CCCC3)n2)C1
IONMODE=positive
INSTRUMENTTYPE=LC-ESI-Orbitrap
INSTRUMENT=Orbitrap
COMMENT=DB#=CCMSLIB00010114880; origin=GNPS
NUM_PEAKS=67
COMPOUND_NAME="3-(4,6-dipyrrolidin-1-yl-1,3,5-triazin-2-yl)-1,2,3,4,5,6-hexahydro-8H-1,5-methanopyrido[1,2-a][1,5]diazocin-8-one, 11-(4,6-dipyrrolidinyl-1,3,5-triazin-2-yl)-7,11-diazatricyclo[7.3.1.0<2,7>]tri deca-2,4-dien-6-one "
PRECURSOR_MZ=408.251
COLLISION_ENERGY=205060
PARENT_MASS=407.2437235480092
55.054779 0.0007534410316049082
67.290031 0.00036992837478252815
67.470009 0.0003591267458749566
68.024727 0.0005802859854622137
68.049728 0.00033955222039270774
69.04509 0.00045087205333482473
70.06562 0.0028852548992515073
72.081161 0.000744421397314068
80.024803 0.0005562290581363407
80.622398 0.00041553372931995246
81.693893 0.00036669336917061586
82.04055 0.0005377648523768244
82.379509 0.000507799927513942
84.055969 0.00047697142064448986
97.076073 0.014590341369854902
110.059509 0.00041406701067387363
111.066429 0.0005721847637815351
111.091713 0.0007967572084423777
115.054207 0.0015317477419386676
117.057327 0.003841089396364402
122.071259 0.0974178623850545
131.072739 0.0004536272911653093
132.080887 0.007729360527119491
142.065308 0.0037784591394117444
143.072983 0.0021639034783986614
145.052673 0.00082466598567057
146.059341 0.00032399403662355334
149.08226 0.014086681152912136
153.113556 0.006300680612282384
158.059952 0.0006570762457924366
160.075653 0.13571121324224875
162.091095 0.0028171415819396766
165.113419 0.012444559405943308
174.091431 0.0017566217549192648
178.109283 0.001551240021515529
180.124222 0.000768711354705206
192.124283 0.010113312925382676
195.135452 0.0006059192926413492
206.127121 0.0012253680367189587
207.135361 0.00517239015922259
208.92305 0.0014853610513000611
216.111923 0.003539671860769745
218.139771 0.01114264784661029
219.134369 0.004030570254726535
220.154602 0.0005721162255270455
233.151489 0.0004445117033181836
234.159317 0.0006701944677017588
235.166672 0.003458796720471938
236.150375 0.036099222008565635
245.15239 0.00036691269158498275
247.16626 0.02039187158233994
249.182022 0.17278917523257772
259.16629 0.014979940223675964
261.181976 0.4275423443043888
273.183319 0.0014620580447735742
285.183533 0.0007918772847227134
287.198059 0.0013890922190438748
299.198486 0.0004736404614762921
311.197052 0.0007398841648668521
313.214081 0.005156420745926498
337.179535 0.0004595215810514207
354.204712 0.0016184486338680962
366.202789 0.006738448151358784
406.117737 0.000666054757130583
406.23526 0.010635505886339448
408.250214 1.0
410.400787 0.0005457975358030134
END IONS

BEGIN IONS
CHARGE=1+
PRECURSORTYPE=M+H
FORMULA=C20H22N2O2
ONTOLOGY=
INCHIKEY=XIMRYFKXRPRILH-UHFFFAOYSA-N
INCHI=InChI=1S/C20H22N2O2/c1-3-24-19-11-7-5-9-17(19)20(23)21-13-12-15-14(2)22-18-10-6-4-8-16(15)18/h4-11,22H,3,12-13H2,1-2H3,(H,21,23)
SMILES=CCOc1ccccc1C(O)=NCCc1c(C)[nH]c2ccccc12
IONMODE=positive
INSTRUMENTTYPE=LC-ESI-Orbitrap
INSTRUMENT=Orbitrap
COMMENT=DB#=CCMSLIB00010115995; origin=GNPS
NUM_PEAKS=54
COMPOUND_NAME=(2-ethoxyphenyl)-N-[2-(2-methylindol-3-yl)ethyl]carboxamide
PRECURSOR_MZ=323.175
COLLISION_ENERGY=205060
PARENT_MASS=322.16772354800923
53.039101 0.0013302786031434155
54.619999 0.0007429947237214759
55.018299 0.010728587605460967
59.442348 0.0006557524776245725
62.018669 0.0007096438904034192
65.038879 0.018285753915465136
77.039169 0.0013609790391116928
78.397049 0.000722675010706501
79.054733 0.0012134402533073095
81.033653 0.0010036171297831114
82.402039 0.0009627568373073464
91.054291 0.04692462247850583
93.033546 0.005801278065775353
93.069931 0.1210803107944279
95.049179 0.0032794249874603075
96.843521 0.0007920270746923938
98.036087 0.0018616832717741737
103.054123 0.06111992981747818
105.069977 0.0015716856284191507
107.049118 0.009855944278046118
111.044037 0.0016454550213213424
115.054176 0.0032862718472805707
117.057114 0.00425985114043285
117.069656 0.007818672181849062
119.049332 0.0032350308318515033
120.044411 0.0017631768369407081
121.028358 0.37486049523116216
121.064682 0.7012215902251578
121.40976 0.0008962760371170479
122.068008 0.0009099697567575745
130.064987 0.005788246945472271
131.049042 0.14029282031653253
131.084885 0.005879023054702214
132.080307 0.0011518185149249397
133.964142 0.0006988214345584868
141.069611 0.005526961940073191
143.07283 0.1223719377695537
149.059586 0.5452653633043211
150.061874 0.00096872023134435
157.088165 0.004403635196658379
157.585068 0.001033434099968129
158.096283 1.0
164.069885 0.0014398283602676282
166.086121 0.019465843335454387
186.127182 0.002978825754706167
192.101593 0.008159469107741523
216.817474 0.0007675108992069348
229.386017 0.0007558049775787428
236.67659 0.0007516085151082587
245.951752 0.0008976012357919377
263.240234 0.0009227800106148414
270.017029 0.000754479778903853
323.174652 0.21009986918080414
329.593048 0.0009159331507945781
END IONS

BEGIN IONS
CHARGE=1+
PRECURSORTYPE=M+H
FORMULA=C17H11F3N2O2
ONTOLOGY=
INCHIKEY=QBYCBYLVSNRKEN-UHFFFAOYSA-N
INCHI=InChI=1S/C17H11F3N2O2/c18-17(19,20)10-4-3-5-11(8-10)21-16(24)13-9-15(23)22-14-7-2-1-6-12(13)14/h1-9H,(H,21,24)(H,22,23)
SMILES=OC(=Nc1cccc(C(F)(F)F)c1)c1cc(O)nc2ccccc12
IONMODE=positive
INSTRUMENTTYPE=LC-ESI-Orbitrap
INSTRUMENT=Orbitrap
COMMENT=DB#=CCMSLIB00010120858; origin=GNPS
NUM_PEAKS=100
COMPOUND_NAME=(2-oxo(4-hydroquinolyl))-N-[3-(trifluoromethyl)phenyl]carboxamide
PRECURSOR_MZ=333.085
COLLISION_ENERGY=205060
PARENT_MASS=332.0777235480092
61.908569 0.001906767581486889
66.937103 0.00204678003826526
79.89727 0.002047501751959994
81.057457 0.0022964929766431798
81.900177 0.0018988287308448165
93.339653 0.001935636129276244
100.179527 0.001991929797465486
110.93766 0.0018815076021712035
111.879921 0.002187514208738365
115.035179 0.011809401186930342
116.049393 0.05210123333653293
117.057083 0.011807957759540874
121.051933 0.011438440347837132
124.913101 0.002182462212875228
128.038635 0.0022972146903379137
128.049362 0.05806908387828732
131.835205 0.0020742051586651474
132.044113 0.004996423908642593
142.045639 0.004391627832455609
143.030182 0.023589212112376596
144.044174 0.03091171925914646
145.025681 0.002463208840126704
145.052292 0.0019392446977499133
146.059784 0.033552469668177695
148.039444 0.002497129383779196
149.047073 0.06292188676167787
150.034576 0.0023073186820641877
157.96846 0.0022705112836327603
160.036758 0.05848623439384349
162.055099 0.02403017917985899
166.045898 0.016244331841069985
168.025284 0.03633828452985044
172.024124 0.0032253385017656728
172.038788 0.023213920991114984
174.034866 0.0025440407739368977
177.041809 0.09998188498626218
178.047897 0.0030138763892086484
188.031525 0.04691211187139639
190.065369 0.02168533138566864
194.041016 0.0820884373527253
195.049896 0.0029388181649563257
199.051071 0.0030665614889242208
205.075668 0.003228225356544608
206.042221 0.0036648621418586005
210.036224 0.007170947270875749
217.075806 0.04045999144047558
218.084244 0.007750483367747048
219.068909 0.0022589638645170184
219.091278 0.012811139795220956
220.075287 0.002800970849262156
221.070908 0.0032101825141762613
222.071106 0.009198962753077928
223.065628 0.013415935871407941
229.076721 0.002182462212875228
232.06163 0.0022041136237172443
234.079361 0.002514450512452809
235.085754 0.011204605110743358
237.081757 0.025332150685158896
238.066132 0.00393694820477327
240.060867 0.0032029653772289225
242.078262 0.005102515821768473
243.074814 0.002059049171075736
245.070389 0.104833966155958
247.065491 0.04367955623268338
247.090134 0.0025122853713686073
248.07338 0.002334022088769341
250.065933 0.009017812615699727
251.060974 0.18670949796873682
252.069016 0.036356327372218784
253.070114 0.0028471605257251236
257.088379 0.033894561959481546
258.072266 0.010447527444967526
265.076599 0.1763391938891058
266.062195 0.003454843456691044
267.072113 0.09002007085785055
268.081421 0.04874598636971516
270.07132 0.012124790071529045
271.067047 0.0739171949009484
273.065308 0.31749123659146167
275.061279 0.03286756337187525
276.069733 0.0034461828923542373
284.075592 0.013060852733598876
285.046295 0.004896827418769319
285.082001 0.06880168823267473
287.077667 0.009177311342235912
293.071472 0.08582547086405728
295.067169 0.14446182170640542
296.074921 0.11614033289765884
297.062225 0.004484007185381545
300.070526 0.008659120909416992
305.089844 0.004012728142720326
311.062561 0.0033032835807969307
312.069885 0.027481414068076367
313.077545 0.3200309470832302
315.07312 0.007934520359904185
316.064453 0.004163566304919705
328.061646 0.0033321521285862854
333.083832 1.0
339.498169 0.00239536775282172
344.06012 0.003933339636299601
END IONS

BEGIN IONS
CHARGE=1+
PRECURSORTYPE=M+H
FORMULA=C20H18O7
ONTOLOGY=
INCHIKEY=BYNBJNABVGIMKZ-UHFFFAOYSA-N
INCHI=InChI=1S/C20H18O7/c1-23-16-8-11(9-17(24-2)19(16)25-3)7-15-18(21)13-10-12(20(22)26-4)5-6-14(13)27-15/h5-10H,1-4H3/b15-7+
SMILES=COC(=O)c1ccc2c(c1)C(=O)C(=Cc1cc(OC)c(OC)c(OC)c1)O2
IONMODE=positive
INSTRUMENTTYPE=LC-ESI-Orbitrap
INSTRUMENT=Orbitrap
COMMENT=DB#=CCMSLIB00010115793; origin=GNPS
NUM_PEAKS=245
COMPOUND_NAME="methyl 3-oxo-2-[(3,4,5-trimethoxyphenyl)methylene]benzo[b]furan-5-carboxylate "
PRECURSOR_MZ=371.113
COLLISION_ENERGY=205060
PARENT_MASS=370.1057235480092
53.038929 0.0007501543397332974
54.444839 0.0005913292687840793
55.018291 0.0007054480234661101
60.138988 0.0006185354151966769
65.038902 0.0031673836834298684
66.046883 0.0007475072552174772
67.082352 0.0004997107324865212
74.673752 0.0005377993374641578
75.044189 0.0005594171943433568
78.046761 0.010604955871630519
79.01812 0.0006229472227230441
79.054527 0.009600828478629352
81.033798 0.0009238324960212849
89.038696 0.002065461223594229
91.054359 0.00886861548950328
92.39016 0.0005447111692554663
93.03344 0.001146334655601069
95.048988 0.0012217765643019476
102.04631 0.0009044205429052694
103.054161 0.0049182830303941185
104.061821 0.003283855402125962
105.033493 0.010665985875745264
105.069939 0.025138185164738362
106.033974 0.000813096127109469
106.041397 0.01582221239206145
107.049187 0.017695318807506074
109.028442 0.0012901595809606387
109.064323 0.0007488307974753873
110.035667 0.0006658888159796845
111.0438 0.0009041264224035116
115.054077 0.0024559061896777235
118.041351 0.008773614567435507
119.01268 0.0068333016173392274
119.04908 0.004586662164662187
120.020737 0.0012017763701824165
120.873322 0.0005247109751359352
121.028252 0.003110177245837974
121.064629 0.0021972272083817285
123.044083 0.005500347503372827
124.05191 0.008319198392219689
125.059303 0.001112363737648042
129.032852 0.0006023587875999973
130.040741 0.0009116264951983357
131.04895 0.010166275143258744
132.057068 0.011616436277175632
133.028107 0.002492230071644813
133.064819 0.0033906211442640472
134.03624 0.024936418500532506
135.044128 0.008367728275009728
136.015808 0.0087611144461108
137.059067 0.0010095686222836868
138.031418 0.0006744183105306611
139.039322 0.00535475785500271
139.075073 0.004067392418808771
141.069336 0.000584123316491013
142.305328 0.0007063303849713836
145.028519 0.011714966645264498
146.036194 0.002635319695749988
147.044327 0.00808522553307135
148.052002 0.005193726880290309
149.023651 0.0010035391519976518
149.05957 0.002568554341850965
150.030975 0.0014141313724515563
151.038956 0.015264412860477763
152.032883 0.0012735417726113224
152.04689 0.02489038864200741
152.061829 0.0023269343496569233
153.06987 0.000979715391355269
154.062683 0.0006678005992411103
158.036362 0.0007763310643897426
159.04422 0.0073500713389277016
160.051727 0.009092588251591854
161.023132 0.0010750104339248
161.05986 0.008261844894376915
162.031113 0.006278737411274874
162.067154 0.002483406456592079
163.03894 0.06017411345463059
165.018311 0.018479002884439762
165.054459 0.0033235616698632665
165.069855 0.007165216603572917
166.07782 0.00315105999558231
167.034531 0.0018782535242253822
167.070282 0.06358752893778087
167.084427 0.003185177973786216
168.056992 0.000735301254394528
169.064346 0.000590299847027927
173.023071 0.009980390986147806
175.038879 0.001274277073865717
176.046631 0.0010258923101312454
177.054504 0.021116969664705568
177.069901 0.0011779526095400338
178.062408 0.051482411446934634
178.077332 0.003394444710786899
179.033829 0.10159363311467434
179.084641 0.0038418019939605295
180.056625 0.0006766242142938446
181.048981 0.0012126588287474556
181.064682 0.005879910010891282
182.072891 0.00482401740958074
183.079819 0.0009636858240094683
187.039078 0.0009039793621526327
189.054535 0.021540797307738575
191.033798 0.002156050338135635
192.056671 0.0010550102398052686
193.064316 0.0034069448321116056
193.083618 0.0009866272231465775
194.072708 0.003643564775775765
195.04425 0.002157815061146182
195.080658 0.00735698317071901
196.036041 0.0011882468271015572
197.060379 0.005252109799889234
197.095703 0.001073245710914253
198.066803 0.002883116218480944
205.049103 0.06539887004785634
206.072296 0.0032369431820955907
207.043503 0.0008898615780682577
207.079788 0.0012472179877039984
208.052017 0.002503259590460731
209.060394 0.006328296715821065
210.067383 0.002907969400879479
211.039368 0.002554142437264832
211.075912 0.0029462050661079944
212.04631 0.0006539769356584932
213.052155 0.0005680937491452123
214.061752 0.0006917714201343719
217.049377 0.00513843222595984
218.057037 0.0008850085897892538
220.050705 0.0015456032367372977
221.059921 0.013142627560796913
222.068085 0.005217697701183571
223.038879 0.0031176773186327987
223.075409 0.0073199239874975255
224.047516 0.0011255991602271433
225.054703 0.006235354637265597
225.091644 0.0008588318651328086
226.062088 0.011412022528453953
227.069962 0.0028717925791632683
229.050064 0.003810478160523323
233.058929 0.0029294401975077993
234.068237 0.0022235509932890525
235.03801 0.0018617827761269448
235.058472 0.002038843318185147
236.047119 0.0043247478578468555
237.054352 0.014665730579149739
237.091003 0.0030229705170667833
238.062027 0.002395464426566493
239.033371 0.0010958929895496044
239.038162 0.0011404522455659128
239.069901 0.0209996155845042
240.040359 0.0022419335246489157
241.048553 0.0022003154736501855
241.085815 0.0030666474115778183
242.05719 0.023963909061470303
243.065521 0.007859782168473987
248.046295 0.0009014793378876913
249.055237 0.012621298971431194
250.061417 0.006029029105282493
251.037445 0.001722810839046379
251.070084 0.013216451806738125
252.041565 0.003017235167282506
252.077957 0.0054406410415159916
253.049469 0.028793073579831803
253.085342 0.004996224963359938
254.057037 0.01115452002916499
255.065262 0.009051117260844002
256.072296 0.0027453207634074096
257.046265 0.002146932602581143
257.080902 0.006059911757967063
263.033691 0.0024167881629439344
263.070129 0.005590495437161596
264.041199 0.0011420699083255809
264.077484 0.0007155951807767546
265.049622 0.009819212951184526
265.085907 0.005113431983310426
266.057068 0.014039548030907359
267.064972 0.06981611880350604
268.038513 0.0023247284458937398
268.072754 0.008809938449402597
269.044495 0.005527700710036303
269.080872 0.016973988276945042
270.052155 0.02082917275373555
271.059784 0.003997097618888654
277.049255 0.009295678458055623
278.058746 0.004684457231496659
279.064911 0.06536622267216123
280.039551 0.0011689819342364206
280.072144 0.009321855182712068
281.044373 0.09102750114927587
281.080414 0.027450560549558276
282.052368 0.022862280722136422
282.087921 0.0029785583213013537
283.060913 0.007052715511650555
283.092896 0.0011875115258471627
284.067993 0.0022516395012069233
285.075745 0.0315510415248148
286.04657 0.0011530994271414987
291.0672 0.0012439826621846624
292.073669 0.002980764225064537
293.043762 0.005138579286210719
293.08075 0.008933910240893515
294.052063 0.01306100912155912
295.059814 0.11511655848424411
296.065552 0.006790360024082587
297.040863 0.0020279608596201083
297.075378 0.039868328133773064
298.046661 0.018730034732690054
298.080505 0.0006601534661954072
299.055908 0.0007654486058247036
299.090454 0.0009404503043706012
300.063904 0.0026516433835975465
307.059845 0.04523382138708994
308.067352 0.014458081504908724
309.038666 0.041826876554978326
309.075897 0.0915828006565946
310.046753 0.0625701661222006
310.083069 0.005467111886674194
311.054382 0.011683201631074655
311.091278 0.004141216664749981
312.062317 0.007036097703301238
312.101257 0.0027225264245211793
313.070282 0.05052519627396383
320.064697 0.001051480793784175
321.075287 0.0046394567947277135
322.047485 0.0022361981748646384
323.01004 0.0010373630096998001
323.054749 0.04861370713303982
324.062012 0.011563053406106588
325.070221 0.09384473437536306
326.041077 0.015632063487675027
327.048615 0.0016783986432809496
327.086945 0.01037892426602964
328.055634 0.0021517855908601466
328.94574 0.0006736830092762665
330.073486 0.0007933900534916956
337.07019 0.07242482059384694
338.078186 0.01584030080291956
339.048981 0.001484573232622552
339.086151 0.031847662050837555
340.053101 0.005851233261969895
340.097137 0.006148000848243527
341.065002 0.050944170928717836
355.080902 0.01808149902631408
356.038696 0.0013388365240015565
356.088715 0.042385117267314656
371.112183 1.0
END IONS

BEGIN IONS
CHARGE=1+
PRECURSORTYPE=M+H
FORMULA=C19H18O5
ONTOLOGY=
INCHIKEY=VGUPMNBTSCIGOC-UHFFFAOYSA-N
INCHI=InChI=1S/C19H18O5/c1-3-22-15-10-9-12(11-16(15)23-4-2)19-18(21)17(20)13-7-5-6-8-14(13)24-19/h5-11,21H,3-4H2,1-2H3
SMILES=CCOc1ccc(-c2oc3ccccc3c(=O)c2O)cc1OCC
IONMODE=positive
INSTRUMENTTYPE=LC-ESI-Orbitrap
INSTRUMENT=Orbitrap
COMMENT=DB#=CCMSLIB00010121617; origin=GNPS
NUM_PEAKS=62
COMPOUND_NAME="2-(3,4-diethoxyphenyl)-3-hydroxychromen-4-one "
PRECURSOR_MZ=327.123
COLLISION_ENERGY=205060
PARENT_MASS=326.1157235480092
51.500832 0.0022807303710384664
64.548912 0.0022375528924113183
65.038986 0.0023239078496656144
67.422493 0.002205889408084743
85.347366 0.0022106869057099817
89.875618 0.0023344623444411395
93.033432 0.032240143541128946
94.936256 0.0023047178591646595
95.04937 0.0028593085846422505
98.984077 0.05276095988332486
105.033447 0.024869268189712246
109.028511 0.0030147475076999835
121.028282 0.14707496569789197
133.028061 0.03459283637654599
137.022949 0.021377649418063537
141.06955 0.015245487953483463
149.023102 0.0035760547298529085
151.038055 0.003611556212279675
153.069534 0.004061561489527063
159.079803 0.0029840435228984563
165.05368 0.003302597365214304
169.064743 0.04205582368236728
171.044357 0.004358046842766813
174.99205 0.005738766659310504
181.06424 0.010134233983554179
185.059158 0.012278715422035865
186.066986 0.010000863549572542
187.074982 0.005148674451406147
196.051651 0.014549850797823855
197.039917 0.005081509484652805
197.059509 0.10485890559484173
197.080139 0.003697911169533971
198.066467 0.004976924036422602
201.053726 0.0037804281286880764
207.045044 0.002408343807869815
209.05983 0.0047917406280883895
213.053848 0.016593584786175532
214.062164 0.04885771581543067
215.07074 0.018107675036700858
225.05423 0.07373657900039339
226.061829 0.012414004855067596
228.041061 0.01110812600147763
237.053833 0.012000460559772023
241.0495 0.023996123621918806
242.056671 0.06936030166665068
243.064804 0.02659252933669798
252.042313 0.004683317181757995
252.074478 0.002452480786022011
253.049255 0.09255140518705443
255.032883 0.0042630563897870875
255.064423 0.09766074015793362
265.049164 0.010520912292148415
268.071594 0.003675842680457873
269.043823 0.03535659799848399
270.051605 0.22341850490784007
271.059357 0.25501002677003676
279.064362 0.010742556682434443
281.0802 0.019594899300524847
283.059418 0.24936433156465587
297.074799 0.04052925993801633
299.09082 0.12993446618243923
327.121887 1.0
END IONS

BEGIN IONS
CHARGE=1+
PRECURSORTYPE=M+H
FORMULA=C20H20N2O3
ONTOLOGY=
INCHIKEY=YHEPCXKBZQIQES-UHFFFAOYSA-N
INCHI=InChI=1S/C20H20N2O3/c1-13-10-15(16-6-4-5-7-17(16)22-13)12-21-20(23)14-8-9-18(24-2)19(11-14)25-3/h4-11H,12H2,1-3H3,(H,21,23)
SMILES=COc1ccc(C(O)=NCc2cc(C)nc3ccccc23)cc1OC
IONMODE=positive
INSTRUMENTTYPE=LC-ESI-Orbitrap
INSTRUMENT=Orbitrap
COMMENT=DB#=CCMSLIB00010116015; origin=GNPS
NUM_PEAKS=116
COMPOUND_NAME="(3,4-dimethoxyphenyl)-N-[(2-methyl(4-quinolyl))methyl]carboxamide "
PRECURSOR_MZ=337.155
COLLISION_ENERGY=205060
PARENT_MASS=336.1477235480092
50.01553 0.0005659725609339442
50.645721 0.00029022335080126487
51.02338 0.0006957685758596781
53.039009 0.00215738749704879
55.01825 0.001850468393290273
55.055111 0.0003452924069263947
57.132221 0.00031802716520184994
58.523911 0.0003237494998847791
65.032707 0.0003298084424902335
65.03904 0.006312744979038415
66.046806 0.009845310482771834
66.873497 0.0002838951218577903
67.018181 0.0004057471898119284
67.05452 0.0006907194570217994
68.026039 0.0006915273160358601
68.997566 0.00777894176797387
69.033897 0.003277685984797305
75.044197 0.0015341242677010493
77.038757 0.0035650145074648527
78.04686 0.0003924848376644338
79.018044 0.00241300755341446
79.05455 0.04555712212882699
80.0261 0.0004415622727686143
81.03389 0.0034373727832432807
81.070152 0.009598307589222812
81.823273 0.00028510691037888114
82.041512 0.004522866011802686
83.049454 0.0021316033301833565
84.960091 0.0005475937683640659
85.028687 0.0012111153052458258
91.054314 0.003198650444588378
92.025589 0.002167351091555537
93.033501 0.0004464094268529778
94.04142 0.023268493895648987
95.01265 0.0017956686235031634
95.04924 0.007189070044540634
97.028511 0.002050884750361803
98.036369 0.0083954055172866
99.043907 0.0005464493014274802
105.033417 0.004760780491443527
105.044662 0.0016627084941056923
107.012428 0.0005898717234332366
107.048981 0.005313356057060967
109.028511 0.015539437421793357
109.064819 0.026517972136538677
109.841713 0.00031055446932178954
110.036293 0.0005966712034682465
111.007759 0.006933113380252438
111.04409 0.0006518749027623864
112.162453 0.00030207194967415345
113.059647 0.0011613646542965948
115.0541 0.002784622699882329
121.0186 0.0003162768040047187
121.028427 0.013920689922369462
122.036171 0.03541923203979621
123.043716 0.0011584025045783726
124.051682 0.0006138382075170338
126.031174 0.023901316789996442
128.061905 0.0011327529808819491
129.069916 0.007822970084240172
130.065231 0.0005590384377299242
133.027847 0.0005359471342446926
135.043686 0.0012191938953864316
137.023407 0.0029546097007575765
137.059647 0.0023113519608118365
140.046371 0.0006118858815663874
141.054337 0.006472633742237906
144.080765 0.0543100725814199
146.060837 0.0003866278598124946
146.096741 0.0012840919028492986
147.06778 0.0005889292212501658
149.023361 0.012987747404298497
150.031006 0.0013409113201715596
151.039108 0.0007068766373030112
151.076843 0.0003378197110463343
153.054352 0.0005992294236794383
154.025864 0.01166339719391518
154.040817 0.00041995204414249366
154.065491 0.0005517003850188739
155.070236 0.03893698679493852
156.068237 0.004634148590989531
156.080795 0.049703458518492935
157.076065 0.0021039341589517814
157.088501 0.029781587910174427
159.066544 0.0005529121735399649
160.076584 0.0011623071564796654
162.853912 0.00035350564023601063
164.505173 0.000825631912369917
165.054565 1.0
165.605759 0.0012783695681663693
166.049911 0.0018218567198756274
170.058945 0.0004156434627341706
170.083801 0.0020490670675801666
171.091553 0.049272129126569086
172.099319 0.06586932328410577
173.107666 0.008376151544118157
174.091782 0.004210426538114755
175.062592 0.0006133669564254985
195.585938 0.0004297809954802308
199.086105 0.0037413297372835756
220.111053 0.0006027974676582059
235.099731 0.00045435337382457357
275.119568 0.0005472571604415407
278.118958 0.00037094193062281824
279.112091 0.0027832089466077225
292.123108 0.0020560011907841866
293.128113 0.025241420251153942
305.130096 0.0011695105660217058
307.107239 0.0037471193935510096
308.112793 0.00040938255537520103
319.107056 0.0011971124156687756
321.122925 0.16726996904620867
322.132843 0.003058756191986887
335.554871 0.0004964966857247341
337.154205 0.8119844807590536
338.7659 0.0005852938556868933
END IONS

BEGIN IONS
CHARGE=1+
PRECURSORTYPE=M+H
FORMULA=C20H22N2O4S
ONTOLOGY=
INCHIKEY=YLPJGUIDEISKHS-UHFFFAOYSA-N
INCHI=InChI=1S/C20H22N2O4S/c1-13-3-5-18-17(11-13)16(14(2)22-18)7-8-21-27(23,24)15-4-6-19-20(12-15)26-10-9-25-19/h3-6,11-12,21-22H,7-10H2,1-2H3
SMILES=Cc1ccc2[nH]c(C)c(CCNS(=O)(=O)c3ccc4c(c3)OCCO4)c2c1
IONMODE=positive
INSTRUMENTTYPE=LC-ESI-Orbitrap
INSTRUMENT=Orbitrap
COMMENT=DB#=CCMSLIB00010120716; origin=GNPS
NUM_PEAKS=33
COMPOUND_NAME="(2H,3H-benzo[3,4-e]1,4-dioxin-6-ylsulfonyl)[2-(2,5-dimethylindol-3-yl)ethyl]am ine "
PRECURSOR_MZ=387.137
COLLISION_ENERGY=205060
PARENT_MASS=386.1297235480092
56.946152 0.0003460858518447184
67.281197 0.0002710407075000736
78.431686 0.0003878995692388756
80.049721 0.0004979724338826831
91.054573 0.002695038787462072
92.386276 0.00032333280276150166
105.069809 0.0017804260907617131
115.053749 0.0004924837597617317
116.062202 0.0013848423777535056
128.060959 0.0003850055410660103
129.069214 0.00295739741044355
130.064819 0.0031237541333458407
131.072937 0.005626489738424761
131.085449 0.012689914361714603
132.080185 0.0006809947672976812
142.064255 0.0004390939296761133
144.045456 0.0003658450786801435
144.080856 0.006655765827215541
145.088272 0.0022592380622585297
145.101044 0.0055486503599821765
146.095932 0.00045316489424073424
155.085419 0.005720994727380051
156.080566 0.019484593541227675
157.088486 0.28140332424042985
158.096298 0.018806891978402566
159.101212 0.010708902180350846
160.111557 0.001500304122443338
170.096313 0.0017041834175179518
171.104248 0.0038852827191091185
171.528778 0.0015038967091406882
172.111862 1.0
172.698914 0.0014247600077240614
387.136383 0.013071626698308041
END IONS

BEGIN IONS
CHARGE=1+
PRECURSORTYPE=M+H
FORMULA=C7H5NO4
ONTOLOGY=
INCHIKEY=GJAWHXHKYYXBSV-UHFFFAOYSA-N
INCHI=InChI=1S/C7H5NO4/c9-6(10)4-2-1-3-8-5(4)7(11)12/h1-3H,(H,9,10)(H,11,12)
SMILES=O=C(O)c1cccnc1C(=O)O
IONMODE=positive
INSTRUMENTTYPE=LC-ESI-Orbitrap
INSTRUMENT=Orbitrap
COMMENT=DB#=CCMSLIB00010125383; origin=GNPS
NUM_PEAKS=23
COMPOUND_NAME=quinolinic acid
PRECURSOR_MZ=168.029
COLLISION_ENERGY=205060
PARENT_MASS=167.02172354800925
56.965569 0.004403665005364979
58.385071 0.002315037693605836
68.050194 0.036293516523812096
78.034462 0.17690214756508157
80.050056 0.081688290437478
82.38195 0.003240815869303338
84.044853 0.003223217453972952
93.727074 0.002484930087756867
96.044907 0.7653200551033459
109.016472 0.0028279299711673656
109.253662 0.002636208773385375
112.039589 0.050260904968049566
122.023849 0.03341177601346143
124.039528 1.0
124.213051 0.002523849660122143
131.581802 0.002748229455584561
140.03421 0.0739251894748616
140.045471 0.004578972296540744
150.0186 0.614270487305197
152.719254 0.00234465041170985
156.514679 0.0026404391616859486
158.013031 0.0039224160322917385
168.029236 0.02077256028007201
END IONS

BEGIN IONS
CHARGE=1+
PRECURSORTYPE=M+H
FORMULA=C8H12N4O2S
ONTOLOGY=
INCHIKEY=WZVUIKDWCPCMPC-UHFFFAOYSA-N
INCHI=InChI=1S/C8H12N4O2S/c1-12(2)7(14)4-15-8-10-5(9)3-6(13)11-8/h3H,4H2,1-2H3,(H3,9,10,11,13)
SMILES=CN(C)C(=O)CSc1nc(N)cc(O)n1
IONMODE=positive
INSTRUMENTTYPE=LC-ESI-Orbitrap
INSTRUMENT=Orbitrap
COMMENT=DB#=CCMSLIB00010121377; origin=GNPS
NUM_PEAKS=24
COMPOUND_NAME="2-(6-amino-4-hydroxypyrimidin-2-ylthio)-N,N-dimethylacetamide "
PRECURSOR_MZ=229.075
COLLISION_ENERGY=205060
PARENT_MASS=228.06772354800924
53.371651 0.0012982003932230177
54.052608 0.0011526120123405191
58.065521 0.008663180608881967
68.013443 0.021604419794465042
71.990517 0.0049137198458465425
73.413887 0.0015190467679155463
73.96199 0.0014791779497661851
82.206512 0.0012000962227206571
83.990433 0.0046444933322761376
86.060158 0.006548789354219218
90.688103 0.0012538519325849642
97.039619 0.2000814399004444
104.297371 0.0014222864901597934
104.44799 0.0012484763615985336
110.034401 0.002459323726292052
117.011597 0.05871646595628496
126.995903 0.41448832851547784
138.995773 0.08049424791506239
139.008011 0.0017053998954451443
144.02243 0.022795556732208316
156.022354 0.5880422215263844
184.017273 1.0
229.075104 0.007684826689351576
229.235626 0.0020606355447984406
END IONS

BEGIN IONS
CHARGE=1+
PRECURSORTYPE=M+H
FORMULA=C21H21NO2
ONTOLOGY=
INCHIKEY=IUEMWJYKAIDIHO-UHFFFAOYSA-N
INCHI=InChI=1S/C21H21NO2/c1-14-9-15(2)21-18(11-20(23)24-19(21)10-14)13-22-8-7-16-5-3-4-6-17(16)12-22/h3-6,9-11H,7-8,12-13H2,1-2H3
SMILES=Cc1cc(C)c2c(CN3CCc4ccccc4C3)cc(=O)oc2c1
IONMODE=positive
INSTRUMENTTYPE=LC-ESI-Orbitrap
INSTRUMENT=Orbitrap
COMMENT=DB#=CCMSLIB00010115496; origin=GNPS
NUM_PEAKS=80
COMPOUND_NAME="5,7-dimethyl-4-(2-1,2,3,4-tetrahydroisoquinolylmethyl)chromen-2-one "
PRECURSOR_MZ=320.165
COLLISION_ENERGY=205060
PARENT_MASS=319.15772354800924
55.018299 0.010100243138717819
61.58535 0.0023488553663009405
68.538094 0.002395898499076469
69.401749 0.002083928250144018
71.848999 0.002192044923715846
73.952293 0.0028143347853430106
82.397797 0.003534837503115576
84.758713 0.0021185916111365125
89.599327 0.002102085248759134
91.054367 0.049261587879047976
92.378197 0.0025733418946332865
103.054039 0.009619082675417239
105.069946 0.08867547996375202
107.085617 0.0036619364934213894
107.832413 0.0021804904700516814
115.054329 0.04043563591586377
116.062286 0.016749005904325823
117.057503 0.009676854943738064
117.069893 0.09584006655365311
119.085533 0.0805378433117045
121.064903 0.0038616634781876674
128.062027 0.051064907968776566
129.070084 0.018492903089495846
130.065155 0.037045229083550256
130.077423 0.011008093069473628
131.073593 0.011895310047257716
131.085358 0.07810067890668458
132.08078 0.4361022206009306
133.090179 0.0029760971366413185
133.101028 0.017710501512808112
134.09639 0.06315994500080056
134.107361 0.003816270981649877
135.080536 0.009142048802711005
141.070175 0.00525562578095727
142.06514 0.047915494027172774
142.076782 0.004664698007847125
143.085434 0.051070685195608645
144.057297 0.003712280898672393
144.080505 0.00876487842238791
145.065277 0.007121670047719893
145.089417 0.0060173944046732816
145.101303 0.03508262259687997
146.072739 0.011627081658625317
146.09639 0.03415826630374678
147.080154 0.03306884638683981
154.444412 0.002252293146393277
155.059937 0.0028324917839581266
155.072876 0.0033070497023077543
157.966797 0.002598926756318223
158.072021 0.0034374499650890434
159.080444 0.3537759129256372
160.075592 0.130507554136742
160.110748 0.018939400191803932
161.096054 0.03551591460928615
162.091339 0.06764719961309086
170.096497 0.021583719444659945
171.080154 0.025199438123424674
172.11235 0.004282575718810816
173.082504 0.008439703083553556
173.096298 0.04100923200847767
174.091553 0.03616378933259825
175.07547 0.023950731809576
187.07518 0.0699778979807767
188.107086 0.06800951426727432
189.090591 0.0112664176406796
198.090759 0.004128241230582328
208.47438 0.0030495504492206523
208.493362 0.006481223187477614
209.801086 0.0022440399652045883
214.086121 0.0035158551863815907
216.10173 0.06765792874863616
229.101898 0.002868805781188359
276.138306 0.0032905433399303763
277.146057 0.012253498110846826
278.153351 0.017195503006633906
291.13916 0.0020665965696477708
298.547913 0.0022861311892669028
302.152252 0.00411916273127477
303.141266 0.0023373009126367757
320.163971 1.0
END IONS

BEGIN IONS
CHARGE=1+
PRECURSORTYPE=M+H
FORMULA=C16H11ClO3
ONTOLOGY=
INCHIKEY=AXTXAKVFCNXMHV-UHFFFAOYSA-N
INCHI=InChI=1S/C16H11ClO3/c1-9-13-8-12(18)5-6-14(13)20-16(19)15(9)10-3-2-4-11(17)7-10/h2-8,18H,1H3
SMILES=Cc1c(-c2cccc(Cl)c2)c(=O)oc2ccc(O)cc12
IONMODE=positive
INSTRUMENTTYPE=LC-ESI-Orbitrap
INSTRUMENT=Orbitrap
COMMENT=DB#=CCMSLIB00010118804; origin=GNPS
NUM_PEAKS=84
COMPOUND_NAME=3-(3-chlorophenyl)-6-hydroxy-4-methylchromen-2-one
PRECURSOR_MZ=287.047
COLLISION_ENERGY=205060
PARENT_MASS=286.03972354800925
55.01823 0.003233586952651133
65.038818 0.0011622965802936603
68.997467 0.0038453594786757987
72.988533 0.0006585397699621352
81.033249 0.0008351632699087208
82.581322 0.0008612769594169526
83.204247 0.0007069687941410376
84.959518 0.001525039467280734
91.054222 0.026530321554476717
94.041344 0.008904768122307026
102.046219 0.011929920353247
103.054176 0.0037938442911913776
107.048912 0.013272638788324806
109.028236 0.004853347893693544
115.034798 0.0008498818949042696
115.053749 0.0035395919142521396
119.049004 0.0639282110935701
120.657013 0.00065806497560744
121.028374 0.0009555236388239344
123.044022 0.004457132004700464
125.015083 0.03149287214975014
130.041351 0.0041800894987358604
131.049088 0.012825145109024653
136.191849 0.0011122057758733248
137.01503 0.1298410625897658
138.994446 0.013699241516018375
144.265839 0.0007034078364808242
147.043762 0.04231319809607464
148.89946 0.0009818747255095138
149.015045 0.026020629814711503
152.061356 0.006301708072691016
153.069824 0.004609778389734946
161.758728 0.0007627571308177146
163.03009 0.0008603273707075623
165.010101 0.015186534832100846
165.069489 0.01975002077225302
166.017395 0.0018099160800978077
166.077316 0.0049081866416608305
167.085144 0.07811269244008688
168.092621 0.005154604911747599
175.031342 0.00104549716903866
175.822021 0.000727859745747623
176.061707 0.0018056429309055515
177.069687 0.01571593053758591
178.041565 0.0030583878357686328
178.07724 0.03258774793167709
179.085114 0.0198198155423932
180.092529 0.0071617980462212304
181.064331 0.049733046874072664
182.072815 0.0009412798081830807
189.046921 0.0009035336569848184
189.070023 0.0033273588377034195
190.077423 0.0017714577373675027
191.085388 0.0032388096905527795
194.07196 0.0015860505418590573
195.080109 0.0859771861312569
196.087875 0.15077878144028867
199.029327 0.0009491139150355503
203.061768 0.0012705496931641482
205.063278 0.005093119042814581
206.072479 0.011999715123387183
207.079987 0.03908483388132515
208.087967 0.04239177656177668
209.05925 0.0011914964331074104
213.045944 0.019559865633197622
215.026398 0.0013396322717722886
216.032944 0.002903130081783328
223.037964 0.0009899462295393307
223.049622 0.001728488848267594
223.07489 0.08909990860208672
224.082672 0.34460740441796145
225.046921 0.0009277481690742697
228.032974 0.01589611499519271
228.185944 0.0007359312497774402
231.056595 0.04387266015407077
234.067062 0.0011649079492444835
241.039886 0.011801963274656664
244.028091 0.031722910014599925
251.069458 0.03667738910584353
252.077682 0.00321150901515781
258.041443 0.0008026398566121049
259.051147 0.008318871888613244
286.035522 0.001191733830284758
287.046173 1.0
END IONS

BEGIN IONS
CHARGE=1+
PRECURSORTYPE=M+H
FORMULA=C15H17N5O5
ONTOLOGY=
INCHIKEY=CAGLGYNQQSIUGX-UHFFFAOYSA-N
INCHI=InChI=1S/C15H17N5O5/c21-5-9-11(22)12(23)15(25-9)20-7-19-10-13(17-6-18-14(10)20)16-4-8-2-1-3-24-8/h1-3,6-7,9,11-12,15,21-23H,4-5H2,(H,16,17,18)/t9-,11-,12-,15-/m1/s1
SMILES=OCC1OC(n2cnc3c(NCc4ccco4)ncnc32)C(O)C1O
IONMODE=positive
INSTRUMENTTYPE=LC-ESI-Orbitrap
INSTRUMENT=Orbitrap
COMMENT=DB#=CCMSLIB00010117521; origin=GNPS
NUM_PEAKS=39
COMPOUND_NAME=Kinetin riboside
PRECURSOR_MZ=348.13
COLLISION_ENERGY=205060
PARENT_MASS=347.1227235480092
50.015598 0.0006223892109021207
51.023258 0.0007806211673425126
53.039028 0.007065759429387462
55.018261 0.007449731570788182
57.03392 0.028339404491893667
59.04958 0.0029042284282954174
61.028851 0.004510832626940671
66.326286 0.0006026865831214156
69.033737 0.013727691356044812
71.013046 0.012474818056160126
73.028618 0.013216186701489916
73.939667 0.0005121155887496469
81.033691 1.0
85.028526 0.01752571651126028
96.241341 0.0005041734442178897
97.028214 0.006012661611186205
103.038933 0.0013200760613072465
115.038757 0.0035588444179706293
118.635147 0.0006972286497590628
119.035469 0.0010805898569650316
121.050941 0.002221051265015617
133.04953 0.0022439612973187625
136.061691 0.05893300342886817
148.061615 0.29963985429219453
157.944504 0.0007103637349461996
162.076035 0.0006969231826616875
171.066513 0.0023609551956134925
173.069107 0.0077749012959441605
174.078796 0.0006121560631400491
178.071289 0.0006674456077649736
188.092789 0.03697159919662153
198.076218 0.0010278967826677968
213.159119 0.0005499935088241807
214.296524 0.0005981045766607864
216.087769 0.8207790938318557
258.10022 0.0009356457192604642
280.103027 0.0011225915828541318
321.218475 0.0006677510748623489
348.129608 0.42975188435015693
END IONS

BEGIN IONS
CHARGE=1+
PRECURSORTYPE=M+H
FORMULA=C17H14O5
ONTOLOGY=
INCHIKEY=KJGPBYUQZLUKLL-UHFFFAOYSA-N
INCHI=InChI=1S/C17H14O5/c1-20-11-5-3-10(4-6-11)13-9-22-15-8-14(18)16(21-2)7-12(15)17(13)19/h3-9,18H,1-2H3
SMILES=COc1ccc(-c2coc3cc(O)c(OC)cc3c2=O)cc1
IONMODE=positive
INSTRUMENTTYPE=LC-ESI-Orbitrap
INSTRUMENT=Orbitrap
COMMENT=DB#=CCMSLIB00010117084; origin=GNPS
NUM_PEAKS=130
COMPOUND_NAME=Afrormosin
PRECURSOR_MZ=299.091
COLLISION_ENERGY=205060
PARENT_MASS=298.08372354800923
54.36488 0.00035359324280173545
57.720879 0.0003403730706099199
68.99752 0.003102369065454106
79.054649 0.001876164977999408
85.03685 0.00042218447687911105
91.054527 0.0004650241931800443
95.012901 0.0005764286502273075
96.020653 0.0007108160719567349
103.054253 0.0004602289002607686
105.069893 0.002461164220820007
107.012894 0.0005355097004271891
107.04908 0.0025036197838207773
108.020599 0.0022582120583442495
108.057007 0.0005167789153778632
109.028397 0.0008891426832254931
111.043869 0.004587836890522244
117.033348 0.00047205817257268365
118.041107 0.003064245162079311
118.631569 0.0004253769232701206
119.049347 0.001924952447120106
121.064911 0.0028496889206055275
123.007553 0.0035845476904862554
124.015587 0.00461235646840506
129.070023 0.0008174914694123366
131.049011 0.0008349770679025135
132.056946 0.022731436997216185
132.067886 0.0008217966357072665
133.028748 0.000488537024483123
133.06485 0.01077389722304322
135.007309 0.0005581482518057589
135.043976 0.007966809578759216
137.059692 0.011126549952592834
138.031235 0.0028857728374898015
139.039032 0.007646054819788653
139.051849 0.0004820329117113982
140.061478 0.0005319066074049708
141.070435 0.00045698346720766757
143.04866 0.0006453907909393232
145.028595 0.0005410203132846993
145.065018 0.0006526897036424197
147.04451 0.0036526355512737623
148.051773 0.003712695932754415
151.038879 0.0018005265178638703
152.010513 0.0035126712833592104
152.046051 0.00048692093128933396
152.062271 0.001731233210513783
153.018097 0.0005639370446392494
153.070038 0.0027520212557054714
154.077881 0.00042060812368189057
155.085495 0.0005807073231911917
157.064926 0.0030065691803927734
158.071869 0.0006374560382911293
159.080902 0.0014413961688735787
161.059784 0.002696491233833637
163.038788 0.005342565658687264
165.070267 0.0007824275457733228
166.026062 0.011409247041516215
167.03389 0.009089928115115007
167.04863 0.0010229472516719146
168.057083 0.013168881102911013
169.013153 0.006415293879394091
169.064133 0.0027244814380834427
171.043884 0.004432268050621762
171.080322 0.00245312349484763
172.08844 0.003248228099526331
175.039001 0.00236192020272273
176.046707 0.0050146841936654024
178.025711 0.0006059024810156738
180.056976 0.000523958608091254
181.06517 0.002992540961604063
182.07254 0.016896757714354626
183.061401 0.0007195853645328691
183.08046 0.031050899305525015
184.036545 0.04837188148324927
185.059418 0.008809827372634105
186.067902 0.0013471991303405124
187.075348 0.0008457333603070768
193.048706 0.000517467741985052
196.051682 0.016279463100989294
197.059662 0.017599427087014802
198.067291 0.0005884433758565426
199.039459 0.0007407270427073556
199.075821 0.003224052934947109
200.082947 0.008405989527504158
208.052185 0.0035986818825991486
209.058441 0.00050143927670239
210.06752 0.016416870762457934
211.075287 0.0458784616318811
212.045776 0.0017248085777351954
212.082733 0.002428670150292428
213.054504 0.01890697894744539
214.062057 0.0008410440407119839
215.069855 0.0005611684915449713
223.038651 0.0007401706827553955
224.047272 0.008276145712049071
225.054871 0.009383076823135926
226.06189 0.0005584529251127847
227.070099 0.038341148689369615
228.077927 0.023782745359772546
230.056915 0.0015482305263154548
231.06485 0.002009757599797464
237.054321 0.0006377209716015866
238.062317 0.0020056643801509
239.070084 0.07065486586585451
240.07785 0.004535658275027694
241.049423 0.027055506283847217
242.100998 0.00040639445157586044
243.101379 0.07748093884311254
251.033386 0.0005950137219558818
252.041763 0.007067334496425891
253.049194 0.005180108552714894
253.085037 0.0007334546233353048
255.064835 0.02346637524709005
256.072815 0.19181212741766218
258.05246 0.0006622537961499255
266.057831 0.0008268701086025223
267.065125 0.02159390608877152
268.072418 0.003444318489261246
269.044403 0.007938037821243561
270.050995 0.001625736766289716
271.096252 0.0007993567843115395
281.080261 0.00044928715453888514
283.059784 0.04323771236656766
284.067688 0.3562672147041802
286.046692 0.0015677428646306295
288.064636 0.00047589970557431344
297.073547 0.0006487024573200385
297.749481 0.0008607418323444785
299.091064 1.0
300.441254 0.000780784959248488
END IONS

BEGIN IONS
CHARGE=1+
PRECURSORTYPE=M+H
FORMULA=C22H22ClFN2O2
ONTOLOGY=
INCHIKEY=OFSGMVBATZQJCH-UHFFFAOYSA-N
INCHI=InChI=1S/C22H22ClFN2O2/c1-15-2-5-19-17(11-22(27)28-21(19)10-15)14-26-8-6-25(7-9-26)13-16-3-4-18(24)12-20(16)23/h2-5,10-12H,6-9,13-14H2,1H3
SMILES=Cc1ccc2c(CN3CCN(Cc4ccc(F)cc4Cl)CC3)cc(=O)oc2c1
IONMODE=positive
INSTRUMENTTYPE=LC-ESI-Orbitrap
INSTRUMENT=Orbitrap
COMMENT=DB#=CCMSLIB00010118176; origin=GNPS
NUM_PEAKS=89
COMPOUND_NAME=4-({4-[(2-chloro-4-fluorophenyl)methyl]piperazinyl}methyl)-7-methylchromen-2-o ne
PRECURSOR_MZ=401.143
COLLISION_ENERGY=205060
PARENT_MASS=400.1357235480092
51.760971 0.0003437800318472715
52.347328 0.00039289146496831025
56.04998 0.006116175205706893
57.057812 0.0004023636910629341
58.06567 0.0025391743472349235
60.54071 0.00038475770560444846
68.049911 0.0004295448615953329
69.045258 0.0004227495689622332
70.06546 0.0008656790978651867
71.06057 0.0004383993338142204
71.073288 0.00039289146496831025
72.590424 0.00033482260064909456
82.401321 0.0005051167523937448
83.029427 0.0026081568633588145
83.060593 0.0736223625255673
84.037209 0.0004247057895687316
84.068367 0.007301850811203502
85.076233 0.009200620307258423
89.99942 0.00038784647498313015
97.044746 0.0004250146665065998
97.076042 0.018626720779160607
105.069901 0.0004935853467133331
107.029091 0.012117551149506117
108.036827 0.0034232831023929106
116.990196 0.00276403675800295
117.070091 0.00048195098205363213
121.06543 0.0004550786884591015
122.072639 0.0005369310769941662
125.015617 0.0005619501089614878
127.078262 0.00035304633998331655
129.069351 0.0005271499739616741
131.085556 0.0023721748828275336
133.064377 0.0004031873628972492
136.055359 0.0006999151412092697
142.564545 0.000773221934463315
143.005798 1.0
143.450012 0.000621769275928623
145.003174 0.0006168272449227324
145.064499 0.010854450391583887
146.072479 0.0012830747999043716
147.080658 0.001487757250731678
148.055725 0.000471346207186825
156.01326 0.0005699809093460601
157.064758 0.000650288913191784
157.975876 0.0003945388086369405
159.080368 0.006940670711856323
160.112656 0.0004931735107961756
161.060242 0.0014867276609387841
162.070145 0.00044344432379940046
163.099411 0.003818542623884877
166.042297 0.0005607146012100151
170.095703 0.0014590316955099382
172.034073 0.0005788353815649477
172.052536 0.00041348326082618815
173.05864 0.0030051666874987
173.084641 0.0007882539454395659
174.0672 0.002833328151064709
174.091125 0.00199843378800705
175.075623 0.001439366530465665
184.03157 0.003161046582142836
186.04805 0.013745744447988522
186.067001 0.0004989392136363814
186.090652 0.0006922961767418549
187.076996 0.0007488206563717297
187.099487 0.0005242671225415712
188.070038 0.0004916291261068348
188.10675 0.013421938458123391
193.113068 0.0035569238575105383
200.070496 0.0008489997432203056
201.078094 0.0007193743882949643
202.086029 0.0018082685532595474
203.093872 0.002412122966791817
208.075607 0.0006778819196413404
212.070862 0.0004680515198495646
214.086517 0.004187547605658049
215.093643 0.0007437756663865496
216.10173 0.04602050160379202
226.087296 0.0004724787559590083
227.0755 0.0004931735107961756
228.102295 0.0017256954518694572
229.133301 0.0004365460721870114
248.562515 0.0004244998716101528
255.112228 0.00042800047690599207
257.12796 0.013616427970001049
258.135773 0.01020447035532997
266.530273 0.0003781683309299276
287.062195 0.0006744842733247905
381.132141 0.0029840600967443753
401.142059 0.43052451628327143
END IONS

BEGIN IONS
CHARGE=1+
PRECURSORTYPE=M+H
FORMULA=C21H24N2O5
ONTOLOGY=
INCHIKEY=GSOQOOJRRSBXFX-UHFFFAOYSA-N
INCHI=InChI=1S/C21H24N2O5/c1-26-16-7-4-6-15(14-16)20(24)22-10-12-23(13-11-22)21(25)17-8-5-9-18(27-2)19(17)28-3/h4-9,14H,10-13H2,1-3H3
SMILES=COc1cccc(C(=O)N2CCN(C(=O)c3cccc(OC)c3OC)CC2)c1
IONMODE=positive
INSTRUMENTTYPE=LC-ESI-Orbitrap
INSTRUMENT=Orbitrap
COMMENT=DB#=CCMSLIB00010118272; origin=GNPS
NUM_PEAKS=57
COMPOUND_NAME="2,3-dimethoxyphenyl 4-[(3-methoxyphenyl)carbonyl]piperazinyl ketone "
PRECURSOR_MZ=385.176
COLLISION_ENERGY=205060
PARENT_MASS=384.1687235480092
50.01564 0.000542668666845722
50.072369 0.0002938254297873827
51.02351 0.0013776779143984505
53.039059 0.004244921488604875
55.01833 0.000590009149290657
58.75214 0.00030701438338366535
59.941021 0.00032509460453883425
64.031181 0.0004034422295445662
65.039139 0.0006923763917730626
66.046722 0.0015595282547127582
68.026093 0.002794311281140888
68.997612 0.0004748023294661749
77.03862 0.0026236409809611777
79.018204 0.0018003358379243557
79.054512 0.021662201201417593
81.033836 0.002810906653215681
81.070198 0.00542895761410956
82.392647 0.00032229959450518495
83.049438 0.0004517434966885682
91.05442 0.0018226085741299986
91.061043 0.00032509460453883425
92.025757 0.006987350395996148
94.041313 0.003455243810035396
95.049294 0.009078803997737788
104.280823 0.00045654742018390294
105.033836 0.0024381221899777055
105.044563 0.002432182793656201
107.012268 0.0022070097978203287
107.049187 0.005056085806808033
108.020576 0.0014073748960059744
109.028427 0.07096181099181367
109.064774 0.014041868376863432
109.073151 0.0007149111601693601
111.043892 0.0006659984845804974
113.336311 0.0003258807011107981
119.012787 0.001624948958312862
121.028412 0.03249216632930022
122.036186 0.11711336604368514
125.059608 0.017523490094091394
133.028122 0.0004750643616568295
135.044037 0.0649851187551724
135.054779 0.0041394972038981655
137.0233 0.03266711648859396
137.035583 0.0005251125100718623
137.059174 0.0024552416264338075
143.192154 0.0003787238595594802
149.023193 0.0021076122534986756
150.031052 0.037813516057114284
153.018051 0.00037523009701741856
165.054596 1.0
165.605286 0.00037828713924172253
168.041504 0.045532460329418135
183.064957 0.0032530423029135795
208.746674 0.0006837293294814601
210.112579 0.0004185527525389827
225.112381 0.0004530536576418413
385.174957 0.031726420924143864
END IONS

BEGIN IONS
CHARGE=1+
PRECURSORTYPE=M+H
FORMULA=C14H12BrN5O2S
ONTOLOGY=
INCHIKEY=LZSKSTYJGTWFCN-UHFFFAOYSA-N
INCHI=InChI=1S/C14H12BrN5O2S/c1-20-12-11(13(22)17-7-16-12)19-14(20)23-6-10(21)18-9-4-2-8(15)3-5-9/h2-5,7H,6H2,1H3,(H,18,21)(H,16,17,22)
SMILES=Cn1c(SCC(=O)Nc2ccc(Br)cc2)nc2c(O)ncnc21
IONMODE=positive
INSTRUMENTTYPE=LC-ESI-Orbitrap
INSTRUMENT=Orbitrap
COMMENT=DB#=CCMSLIB00010125241; origin=GNPS
NUM_PEAKS=47
COMPOUND_NAME=N-(4-bromophenyl)-2-(9-methyl-6-oxohydropurin-8-ylthio)acetamide
PRECURSOR_MZ=393.997
COLLISION_ENERGY=205060
PARENT_MASS=392.98972354800924
60.53133 0.0010645101602561888
64.957764 0.001338987175973165
80.528091 0.0011804431095520304
84.985451 0.0028618547582798005
96.278831 0.0012963760588478722
104.049477 0.004681080740773158
105.057358 0.012542256024482583
107.02388 0.0018963866540445628
108.055687 0.0017808375886867868
123.067429 0.0016123125398759442
124.051064 0.0015869761999636079
133.052109 0.02658242717529753
137.045792 0.01692774613294515
139.991562 0.005177826556630175
149.045486 0.020939717169669792
150.053345 0.028128327793888106
150.996704 0.010097299222942132
151.061371 0.06883730000606536
152.027283 0.0025209658212774584
153.022812 0.0018748891535128834
154.006409 0.001312115300308566
161.045868 0.004577432077495418
162.053711 0.014250539548874952
163.061264 0.03239788495305483
167.784988 0.0011727654307907166
168.022217 0.016697799654043794
170.038788 0.0013393710599112307
170.966965 0.0011896563240656073
177.022018 0.001713657899525289
179.056366 0.0022914032263141692
181.0177 0.29015330021182717
181.959656 0.00139925695424948
182.024689 0.00144301972318897
183.033737 0.004767838510776006
183.975418 0.008713781510153347
186.033005 0.0015681658869983884
194.333481 0.001373536730399078
195.033417 0.8841392208845147
213.043655 0.008895358612858423
222.045135 0.005819296617137961
222.386917 0.0012998310142904636
223.028214 1.0
236.059082 0.008977125891666417
276.00528 0.0012242058784915203
284.512085 0.0012103860567211553
375.985626 0.005609312103016023
393.995819 0.053966020129338176
END IONS

BEGIN IONS
CHARGE=1+
PRECURSORTYPE=M+H
FORMULA=C16H12O2
ONTOLOGY=
INCHIKEY=NOQJBXPAMJLUSS-UHFFFAOYSA-N
INCHI=InChI=1S/C16H12O2/c1-11-7-8-15-13(9-11)14(17)10-16(18-15)12-5-3-2-4-6-12/h2-10H,1H3
SMILES=Cc1ccc2oc(-c3ccccc3)cc(=O)c2c1
IONMODE=positive
INSTRUMENTTYPE=LC-ESI-Orbitrap
INSTRUMENT=Orbitrap
COMMENT=DB#=CCMSLIB00010115746; origin=GNPS
NUM_PEAKS=65
COMPOUND_NAME=6-Methylflavone
PRECURSOR_MZ=237.091
COLLISION_ENERGY=205060
PARENT_MASS=236.08372354800926
53.03904 0.0004854370353038109
54.25716 0.0003462946810639648
55.934891 0.004980730345142317
56.965302 0.0020871353135976916
58.073269 0.00029643371120662866
61.01123 0.0012254479852021227
65.039017 0.0078428085601235
67.018257 0.004717179504467826
67.054718 0.0017229843556572247
68.997482 0.005330928037545408
72.937447 0.00033692745385006213
77.039398 0.0005128556899611718
79.054543 0.010528080361442269
79.059532 0.0006419477900027682
90.947899 0.0006658537344549157
91.054367 0.04621692332056106
95.04937 0.0013012639804646476
102.495979 0.0003289262806048536
103.054199 0.027398554148964478
105.033562 0.007485975748443893
107.049088 0.01410645873243657
109.064713 0.008634729560832189
115.054413 0.0025314931545572
118.644539 0.00029253069986750254
119.060547 0.001920379154133528
125.059776 0.0014376742267671054
129.01738 0.00040279077019781534
129.033432 0.04086316266668176
135.044052 0.07722810476502066
141.070251 0.0005849638244515269
152.062439 0.0006485829092792826
153.054703 0.017153539684892333
153.069519 0.0014261603433166833
165.069901 0.008375569607914215
166.077667 0.017276972418492194
167.085342 0.0014752407109061944
168.925583 0.0003953750486534757
177.069077 0.00044679722304646235
178.07756 0.023516228769935726
179.085434 0.0018127536164571254
181.063736 0.0004940236602498883
181.101242 0.00908152678387865
183.911575 0.0028535891653185827
185.927979 0.0005701323813628477
190.077286 0.0007243013292583293
191.085495 0.0030887455985009315
192.092941 0.0011916869371186819
193.043152 0.0005498367223993919
193.54248 0.0004132313255299777
194.072876 0.006570524438851863
195.079651 0.0014068404371880092
195.948547 0.0004530420411890641
201.923203 0.0021950535771245285
203.937546 0.0024625074291381457
204.946365 0.000366200038893508
209.057144 0.0003462946810639648
209.096222 0.0012427188103777559
213.922791 0.0056459986278963635
213.960434 0.00032980445815615695
219.933441 0.0011498271405065543
222.067001 0.0014581650362975175
231.932541 0.0005814511142463133
236.08313 0.001659365270829469
237.090759 1.0
238.037949 0.0004024980443473809
END IONS

BEGIN IONS
CHARGE=1+
PRECURSORTYPE=M+H
FORMULA=C20H20O6
ONTOLOGY=
INCHIKEY=RKFPERKYILZGEX-UHFFFAOYSA-N
INCHI=InChI=1S/C20H20O6/c1-22-17-9-5-13(19(23-2)20(17)24-3)4-7-15(21)14-6-8-16-18(12-14)26-11-10-25-16/h4-9,12H,10-11H2,1-3H3/b7-4+
SMILES=COc1ccc(C=CC(=O)c2ccc3c(c2)OCCO3)c(OC)c1OC
IONMODE=positive
INSTRUMENTTYPE=LC-ESI-Orbitrap
INSTRUMENT=Orbitrap
COMMENT=DB#=CCMSLIB00010125656; origin=GNPS
NUM_PEAKS=66
COMPOUND_NAME="(2E)-1-(2H,3H-benzo[e]1,4-dioxin-6-yl)-3-(2,3,4-trimethoxyphenyl)prop-2-en-1-o ne "
PRECURSOR_MZ=357.133
COLLISION_ENERGY=205060
PARENT_MASS=356.1257235480092
51.02359 0.003301310218675125
52.973 0.0019487248483529948
53.03923 0.0047319018352221815
54.065781 0.0021512548270837687
55.01841 0.008530591330285603
61.428822 0.0020918555753712095
62.562851 0.002201350581540144
68.997643 0.01592973426349222
69.001297 0.00223212368784906
69.033981 0.010006269125843398
73.939636 0.002607841846271874
79.054588 0.034030761655850755
89.038857 0.009478116743146185
90.976852 0.0032333231233414726
91.054466 0.023555739399022703
93.07019 0.020691693551388224
95.012749 0.009669911917350593
103.054611 0.014567845395913903
105.03376 0.010759136749959208
105.07 0.011977894890519307
107.012871 0.07459400969281284
107.049294 0.02032170062204614
113.023537 0.008752443957163836
115.054329 0.004135046703556226
117.033653 0.0022600341796176118
118.041344 0.0025763530863278667
119.049156 0.004517921398329951
121.064613 0.0353740435289167
123.044189 0.010125783282903608
125.02346 0.0030758793236214366
131.049316 0.010509373631312423
133.028381 0.010002690857667942
133.064682 0.012677804145638377
134.037506 0.0020346032845639235
135.043732 0.02112180138607796
139.038742 0.0021848905479330493
147.044037 0.013212397411051409
149.05983 0.7023682410092433
150.068039 0.0031925308661412814
151.039047 0.0030093235355579664
152.047272 0.0031846586761552797
153.054626 0.03637452731077402
160.05191 0.0030472531782177936
161.059769 0.07398856671752578
162.067047 0.015795907033730187
163.038788 1.0
165.056503 0.002319433431330171
165.08963 0.002511228605534579
167.070251 0.003921066266663995
175.039841 0.007975959763090021
177.054916 0.03524522587460031
178.062546 0.036702296675645736
189.054657 0.28019127990358716
190.062515 0.02475302793053007
191.03389 0.2197657808783074
193.085693 0.013311157612693978
195.065308 0.06797779183639585
205.049683 0.014204293349287639
206.057388 0.10025019251082784
221.0811 0.11356707535260255
223.074875 0.002784608294139369
239.069244 0.0033270737495384034
266.124603 0.002386704873028732
299.088837 0.0029026911439293964
315.122314 0.5596304078366936
357.133057 0.2323863327331385
END IONS

BEGIN IONS
CHARGE=1+
PRECURSORTYPE=M+H
FORMULA=C17H19N5O2S
ONTOLOGY=
INCHIKEY=URUVXKGMWRRULO-UHFFFAOYSA-N
INCHI=InChI=1S/C17H19N5O2S/c1-3-11-6-5-7-12(8-11)20-13(23)9-25-17-21-14-15(22(17)4-2)18-10-19-16(14)24/h5-8,10H,3-4,9H2,1-2H3,(H,20,23)(H,18,19,24)
SMILES=CCc1cccc(N=C(O)CSc2nc3c(O)ncnc3n2CC)c1
IONMODE=positive
INSTRUMENTTYPE=LC-ESI-Orbitrap
INSTRUMENT=Orbitrap
COMMENT=DB#=CCMSLIB00010120870; origin=GNPS
NUM_PEAKS=85
COMPOUND_NAME=2-(9-ethyl-6-oxohydropurin-8-ylthio)-N-(3-ethylphenyl)acetamide
PRECURSOR_MZ=358.133
COLLISION_ENERGY=205060
PARENT_MASS=357.1257235480092
58.995449 0.008249674663512297
63.33226 0.00046625249526862554
65.071007 0.0004426813090234229
79.054573 0.005881371751640993
84.985847 0.0005849502545748245
91.053886 0.0010536079729296952
92.365402 0.00047455051491617135
93.045372 0.000531193518597245
94.039558 0.0006200665116340039
103.054977 0.0004957164780751289
105.069878 0.002126096947086415
106.06498 0.024249098372060834
110.034813 0.002260188134144583
110.047371 0.0008269156970510883
117.069344 0.0006739435087658957
119.035339 0.0005192876643203315
119.073021 0.002117678666284557
120.054893 0.000679234999555635
121.088287 0.0023358324002069933
122.096413 0.000859867253332647
124.050217 0.0032535452687638368
125.016373 0.0025467704648706947
126.001266 0.0007740007891536946
126.012001 0.003074957454610133
130.064896 0.0069391888649716175
132.080795 0.006535712692253991
133.051865 0.0054058591474903245
134.059921 0.013029574502807317
134.096237 0.02049514644020369
136.050049 0.0009832551976570241
137.04567 0.09868065095438651
138.012329 0.0007945654465410908
140.027267 0.0037635728242021243
143.02742 0.0008967874277065103
144.021744 0.0008141680146939889
145.052841 0.0005738862283780967
145.088364 0.010850562647823508
148.050644 0.003234062961765251
149.045853 0.013563534027953744
150.053635 0.005168704151186551
150.996506 0.0009964839246313726
151.061188 0.01814849053610859
152.027603 0.009655527557422596
153.010406 0.0010608236421884307
153.02327 0.0035327916690769006
154.00679 0.014596817865804667
156.021515 0.0007643798968087139
157.050659 0.0007453786344273772
160.075516 0.008460131683558749
161.045563 0.004016361770566491
162.090973 0.000979046057256095
163.060989 0.0022720939884214968
164.069077 0.002318394532831716
165.012146 0.0009359925640123066
165.07724 0.00435285248033219
167.002075 0.005105567045172615
167.037781 0.0007147120400777513
168.022705 0.030362694412678796
169.003815 0.0010343661882397338
169.018951 0.0032505387399060304
170.037567 0.000834251627464136
172.017319 0.0027654052434103803
175.061188 0.048368074175155804
176.069229 0.012387139416471233
177.022156 0.0005240981104928218
177.077194 0.0033831867931124514
178.006622 0.000675025859154706
181.017654 0.5017891853232807
182.038269 0.001131777723232663
183.033981 0.000856139157548967
193.019409 0.0010617857314229287
194.026413 0.0036262345859775255
195.033325 0.22370703324511376
195.416718 0.0005076223323520424
196.040939 0.0006617971321803576
197.048721 0.0029160924697636398
199.026001 0.0004447257486467313
209.012512 0.02935598828993088
209.048859 0.48461312648094096
227.058609 0.004879355813911257
236.059631 0.002335471616744057
237.043625 1.0
250.07457 0.008519179910326068
340.120514 0.003471819263840586
358.132202 0.02056453712624186
END IONS

BEGIN IONS
CHARGE=1+
PRECURSORTYPE=M+H
FORMULA=C7H6O4
ONTOLOGY=
INCHIKEY=UIAFKZKHHVMJGS-UHFFFAOYSA-N
INCHI=InChI=1S/C7H6O4/c8-4-1-2-5(7(10)11)6(9)3-4/h1-3,8-9H,(H,10,11)
SMILES=O=C(O)c1ccc(O)cc1O
IONMODE=positive
INSTRUMENTTYPE=LC-ESI-Orbitrap
INSTRUMENT=Orbitrap
COMMENT=DB#=CCMSLIB00010122638; origin=GNPS
NUM_PEAKS=34
COMPOUND_NAME="2,4-dihydroxybenzoic acid "
PRECURSOR_MZ=155.034
COLLISION_ENERGY=205060
PARENT_MASS=154.02672354800924
51.94051 0.006617942379381933
55.934769 0.0018526165734230131
56.96542 0.0023300542491387455
58.96085 0.002757146008813364
67.935249 0.006997516645264938
68.997589 0.0020817187756325766
72.937469 0.3212386226715014
73.076286 0.002223705572557516
81.033737 0.02700238153153408
81.069977 0.0022140889369092133
83.930122 0.0026185533185878254
90.947823 0.10926477992046477
96.020576 0.0023951079608772637
108.49353 0.0014215650225990937
108.958366 0.009490488015974928
111.008324 0.0018667586846705172
111.043922 0.0021535607007698966
113.963669 0.26577043393654154
117.935593 0.0018463940444741114
118.636436 0.002102083415828982
118.943237 0.0024827890506117878
119.950859 0.0025218212776548987
124.936401 0.0027486607420648614
131.974213 0.12462990094865282
132.784882 0.0013078624481691623
137.023376 1.0
149.961472 0.0029919050555219286
154.290176 0.0012971144436210592
154.907379 0.0022468986350034225
154.98996 0.009069053100799312
155.033798 0.13998993081679179
155.153702 0.009833292792614424
173.96106 0.001491144209936813
259.627838 0.00129994286587056
END IONS

BEGIN IONS
CHARGE=1+
PRECURSORTYPE=M+H
FORMULA=C12H10N2
ONTOLOGY=
INCHIKEY=PSFDQSOCUJVVGF-UHFFFAOYSA-N
INCHI=InChI=1S/C12H10N2/c1-8-12-10(6-7-13-8)9-4-2-3-5-11(9)14-12/h2-7,14H,1H3
SMILES=Cc1nccc2c1[nH]c1ccccc12
IONMODE=positive
INSTRUMENTTYPE=LC-ESI-Orbitrap
INSTRUMENT=Orbitrap
COMMENT=DB#=CCMSLIB00010115095; origin=GNPS
NUM_PEAKS=40
COMPOUND_NAME=HARMANE
PRECURSOR_MZ=183.092
COLLISION_ENERGY=205060
PARENT_MASS=182.08472354800926
55.93486 0.00010079137789436832
56.942619 0.001389520826010123
63.023769 0.00011390425837015163
72.937462 0.0038582317151772123
73.943489 0.00010808125043005804
74.953049 0.00012759499459571522
82.386749 9.89466845393005e-05
84.959953 0.0014517069947749394
88.93174 0.00012114968046355055
89.940109 0.00018195788551735248
90.947777 0.0018134891445796865
99.947433 0.00012208313975165715
101.633324 0.00010212489116309205
106.943069 0.0001448195409833967
107.950989 0.00012130525701156832
108.957649 0.00018522499302572561
113.95507 0.00019375947794555745
113.963654 0.004682209563921603
115.054131 0.0076514991089464334
118.942268 0.0001506647741446357
125.960258 0.00017213433777108769
129.070343 0.00037685084974132507
130.96637 0.0004555948082594611
131.97377 0.0013828532596665043
140.050262 0.00016788932053231716
141.957916 0.001265192938922781
142.065033 0.0053590119982411845
148.976974 0.0005130470049203084
156.082016 0.0009123008775761921
159.005341 0.00020531659294116309
159.968063 0.001090302673729664
166.06366 0.00024172150517732082
167.059525 0.0002179182933306023
168.067719 0.004536345437544373
181.076111 0.00015437638607591672
182.083954 0.0035749045960157115
182.45134 0.0005607201042771816
183.091507 1.0
183.734451 0.0006287292809820916
185.070328 0.0004899994505925333
END IONS

BEGIN IONS
CHARGE=1+
PRECURSORTYPE=M+H
FORMULA=C12H10N2
ONTOLOGY=
INCHIKEY=PSFDQSOCUJVVGF-UHFFFAOYSA-N
INCHI=InChI=1S/C12H10N2/c1-8-12-10(6-7-13-8)9-4-2-3-5-11(9)14-12/h2-7,14H,1H3
SMILES=Cc1nccc2c1[nH]c1ccccc12
IONMODE=positive
INSTRUMENTTYPE=LC-ESI-Orbitrap
INSTRUMENT=Orbitrap
COMMENT=DB#=CCMSLIB00010115096; origin=GNPS
NUM_PEAKS=36
COMPOUND_NAME=HARMANE
PRECURSOR_MZ=183.092
COLLISION_ENERGY=205060
PARENT_MASS=182.08472354800926
56.942661 0.0009840312881859705
56.945518 0.00010677449275870926
72.937424 0.0024736040049969854
73.958656 0.00012569231301638644
88.932297 0.00013781677752935828
90.947868 0.0011615115149512317
96.937866 0.00014348298456305866
97.241722 0.00010714005450281897
102.948082 0.00020773046109033908
108.957878 0.00013385652530150313
113.9636 0.0032336677979584107
115.054131 0.007994012829754971
125.960213 0.0001517385872842028
129.070267 0.00042782909452305644
130.967377 0.00017126567711539615
131.973465 0.0011596227792733315
132.956787 0.0001086632284366094
132.959717 0.00011423804503428237
136.221329 0.0002046536497440824
140.050125 0.00018713714950549244
141.958084 0.0006168245162277733
142.065109 0.00508603008231963
148.977707 0.00051800099140345
155.973938 0.00046261838717082994
156.080994 0.0007508942858800071
159.968872 0.0007805657141102447
166.063873 0.00022320590825764986
167.059906 0.00030192353715593936
168.067627 0.004783436348632823
177.979431 0.00012611880171784775
181.07515 0.00021233044637038618
182.083588 0.003920710632533923
182.448624 0.0013522128914617937
183.091476 1.0
183.737946 0.0012358424029202046
185.070023 0.0005345121968457383
END IONS

BEGIN IONS
CHARGE=1+
PRECURSORTYPE=M+H
FORMULA=C19H19N3O4S
ONTOLOGY=
INCHIKEY=OWBQCPZBRPKYKE-UHFFFAOYSA-N
INCHI=InChI=1S/C19H19N3O4S/c1-24-13-7-5-12(6-8-13)21-19-22-18(20)17(27-19)16(23)11-4-9-14(25-2)15(10-11)26-3/h4-10H,20H2,1-3H3,(H,21,22)
SMILES=COc1ccc(N=c2[nH]c(N)c(C(=O)c3ccc(OC)c(OC)c3)s2)cc1
IONMODE=positive
INSTRUMENTTYPE=LC-ESI-Orbitrap
INSTRUMENT=Orbitrap
COMMENT=DB#=CCMSLIB00010117270; origin=GNPS
NUM_PEAKS=116
COMPOUND_NAME="4-amino-2-[(4-methoxyphenyl)amino](1,3-thiazol-5-yl) 3,4-dimethoxyphenyl keton e "
PRECURSOR_MZ=386.117
COLLISION_ENERGY=205060
PARENT_MASS=385.10972354800924
51.02354 0.001672476685821174
53.039169 0.012541991589622702
56.386261 0.0007588878188394693
59.990791 0.05915256471193569
65.039047 0.005839416414049194
66.046944 0.010004894400090043
66.741241 0.0008263715831471845
67.054741 0.0008909318630805583
68.025673 0.0009472089372866313
68.997482 0.005406984350344521
69.033943 0.00356056034425003
71.732719 0.000820037367002778
71.990692 0.10172653678437671
73.599854 0.0007703381326389733
73.951492 0.0014271476220743535
77.03907 0.0039023643923501183
79.017967 0.0010500181377843059
79.054604 0.04440358604338305
81.033707 0.0019046500698834577
81.070343 0.007987933805492302
82.041634 0.003659471565581916
83.049423 0.0009852142341530703
87.00148 0.045862891993575156
87.007584 0.0016174177301044098
91.054489 0.003358352675024746
92.025803 0.004540414857050141
94.041573 0.02621975685867706
95.04921 0.008564834722029015
98.036484 0.0071125938590748975
99.985497 0.0009494015505673874
104.282127 0.0008814305388639486
105.011742 0.001529956822572028
105.033562 0.0030742874433179013
105.044823 0.001253200301801037
107.049156 0.005740261569019446
108.044456 0.0011099495674583057
108.057198 0.008265421197356878
109.028549 0.010269713359665807
109.064842 0.030840811159719452
111.00766 0.005537079405002715
114.012207 0.0010936267797015658
114.99617 0.10678124126761308
121.028587 0.008503441550167844
122.026787 0.0016870941076928812
122.0364 0.032760809522568206
122.060066 0.04351655215946828
123.06781 0.0012098352835816387
124.075798 0.0012432117301887037
125.059547 0.004056334569398769
126.031273 0.01655471751710421
134.06012 0.22364046404467475
135.044937 0.0012188493604025248
135.055466 0.004421282868795727
137.022919 0.0011328501950573138
137.059708 0.0017521416350219786
138.025482 0.0008392836391338592
140.029022 0.0035678690551858836
141.054474 0.005294673825630237
147.055283 0.001331159885116809
148.063248 0.01936540411933566
149.024185 0.009115180655498795
149.07103 0.22614126130322598
154.009796 0.0007515791079036157
154.02594 0.007425163063431571
155.070328 0.024055647550570797
161.07077 0.0012527130544053133
162.054779 0.010657318662963912
162.079681 0.0018237670021933443
164.070694 0.0012887693616888578
165.054642 0.4548464184027494
166.007111 0.001127734097402216
166.032455 0.0050437414168325945
169.032074 0.014143817403063958
175.050369 0.0014130174475983697
176.082748 0.002051311535996254
177.022568 0.0010651228070517366
177.07933 0.012156822523303216
178.032181 0.11891881751878522
181.031387 0.012130754787632005
186.023926 0.0009148069854710135
186.582397 0.0008719292146473389
187.074066 0.004386931927397215
192.011566 0.008633049357430317
193.044189 0.0071337891207888735
194.050034 0.0017570141089792142
196.018906 0.001308259257517801
197.131836 0.0008117541612754773
205.020111 0.008830628176396226
205.03447 0.0018590924383833033
207.035172 0.0036270696137662983
208.042587 0.0038219685720557285
209.027008 0.0072536519801368726
209.038742 0.00527201682172909
210.047012 0.0017007370347731413
220.006989 0.008897137445912494
220.053925 0.12488759811639902
221.014374 0.005902758575493259
221.062042 0.0011606232966135575
222.045792 0.005271042326937643
222.069641 0.004622272419531701
233.024933 0.007005643055713572
236.037292 0.05075753570731634
237.032761 0.01618294775416712
238.041779 0.004168401470415191
248.048752 0.31696149600542406
253.063324 0.009124438356017542
262.028046 0.0019182929969637178
339.042419 0.001109462320062582
341.077576 0.001018590680760135
342.089874 0.0014671019085236866
352.072662 0.0020196404552742216
369.072388 0.003282829328687592
370.085358 0.012863331247102401
371.093323 0.0048096190431874165
385.10437 0.005302469783961814
386.116699 1.0
END IONS

BEGIN IONS
CHARGE=1+
PRECURSORTYPE=M+H
FORMULA=C20H23NO3S
ONTOLOGY=
INCHIKEY=ARKVAMJJCGXVMD-UHFFFAOYSA-N
INCHI=InChI=1S/C20H23NO3S/c1-4-24-20(23)18-13(3)21(10-11-25-5-2)19-15-9-7-6-8-14(15)17(22)12-16(18)19/h6-9,12,22H,4-5,10-11H2,1-3H3
SMILES=CCOC(=O)c1c(C)n(CCSCC)c2c1cc(O)c1ccccc12
IONMODE=positive
INSTRUMENTTYPE=LC-ESI-Orbitrap
INSTRUMENT=Orbitrap
COMMENT=DB#=CCMSLIB00010121837; origin=GNPS
NUM_PEAKS=24
COMPOUND_NAME=ethyl 1-(2-ethylthioethyl)-5-hydroxy-2-methylbenzo[g]indole-3-carboxylate
PRECURSOR_MZ=358.147
COLLISION_ENERGY=205060
PARENT_MASS=357.1397235480092
51.4123 0.0009122325822726277
55.054871 0.006822507298400015
58.18811 0.0011527858331754216
60.55275 0.0013408416631039135
61.011139 0.30759677234349564
66.747658 0.0009798320010614547
73.591652 0.0010240592803754214
73.860603 0.0009212218666860356
80.597054 0.0008992880127173204
89.042168 1.0
90.045563 0.0019585852879933003
90.229187 0.0010697248451955331
104.313858 0.001117547838274863
130.288605 0.0009219410094391083
158.013779 0.0011952152556067065
158.85463 0.0010103955680670414
170.782013 0.0010628929890413431
194.097351 0.0017924633120335236
210.0923 0.0018305778779463728
222.091339 0.004021446275182132
250.085846 0.01376403272243355
270.531799 0.0010193848524804492
312.10553 0.009360362073993317
358.146881 0.008235622808187728
END IONS

BEGIN IONS
CHARGE=1+
PRECURSORTYPE=M+H
FORMULA=C18H17N3O4S
ONTOLOGY=
INCHIKEY=HKSLSAQTOBXZMV-UHFFFAOYSA-N
INCHI=InChI=1S/C18H17N3O4S/c1-24-14-8-7-11(9-15(14)25-2)19-16(22)10-26-18-20-13-6-4-3-5-12(13)17(23)21-18/h3-9H,10H2,1-2H3,(H,19,22)(H,20,21,23)
SMILES=COc1ccc(N=C(O)CSc2nc(O)c3ccccc3n2)cc1OC
IONMODE=positive
INSTRUMENTTYPE=LC-ESI-Orbitrap
INSTRUMENT=Orbitrap
COMMENT=DB#=CCMSLIB00010122122; origin=GNPS
NUM_PEAKS=61
COMPOUND_NAME="N-(3,4-dimethoxyphenyl)-2-(4-hydroxyquinazolin-2-ylthio)acetamide "
PRECURSOR_MZ=372.101
COLLISION_ENERGY=205060
PARENT_MASS=371.0937235480092
51.02351 0.001109937251647775
53.03899 0.0012457301175775456
54.85231 0.000749998305726719
55.448792 0.0007602894471372932
56.013191 0.000733432078090185
59.29047 0.0008498976784439995
66.737663 0.0007896568506747851
70.352127 0.0009206806510728264
77.038879 0.0018411102986966143
79.054451 0.003671427449084578
84.96019 0.0013478885213361717
95.049004 0.001813499919302391
104.049294 0.012165384164543805
104.274887 0.0007256509711699949
105.033447 0.009575279573916625
106.065086 0.0011779591863371795
108.044518 0.002847383125891533
118.648872 0.0009309717924834005
120.044113 0.006278098267348291
122.05986 0.009288382631665742
123.067642 0.02173714969017389
124.051567 0.001796180681318742
125.35582 0.0008408615542786173
132.044342 1.0
133.05188 0.0015002476149024763
134.059875 0.013752729976262604
135.067841 0.026951495340497473
136.03891 0.0009821764960872327
136.074966 0.005594866879065785
138.055481 0.0012221357933679367
139.062683 0.0014774063010399826
139.074539 0.0024081270900743446
145.040176 0.001544675225382272
147.031631 0.0011937724036265981
147.05452 0.0019728871094417707
148.039124 0.051660023860387864
149.04776 0.0008453796163613084
150.05484 0.24576801909835044
151.062668 0.003372984348177928
152.07048 0.004633774672697778
154.026016 0.001118973375813157
154.086105 0.09142373925360109
162.0009 0.010191995048203957
162.054703 0.007269561891049945
163.062592 0.11340762533417972
164.033875 0.0010587325480439426
164.069351 0.0014186714939649985
165.054276 0.0011872463139516
166.085953 0.011702784807966046
176.069717 0.0014086313560034629
177.065079 0.0010348872203852953
179.027023 0.0018446243469831518
179.057144 0.0011804692208275634
180.066605 0.0011001481171352776
191.027145 0.19626461687210045
192.065384 0.00097790943745358
193.04245 0.0017740923778033634
194.080399 0.0020070235785109923
219.022049 0.9450786883262563
331.172455 0.000906373454477638
372.100891 0.01823791060712965
END IONS

BEGIN IONS
CHARGE=1+
PRECURSORTYPE=M+H
FORMULA=C20H20O7S
ONTOLOGY=
INCHIKEY=IKYNGNXORONYOJ-UHFFFAOYSA-N
INCHI=InChI=1S/C20H20O7S/c1-23-16-12-9-27-20(22)15(12)13(17(24-2)18(16)25-3)10-28-14-8-6-5-7-11(14)19(21)26-4/h5-8H,9-10H2,1-4H3
SMILES=COC(=O)c1ccccc1SCc1c(OC)c(OC)c(OC)c2c1C(=O)OC2
IONMODE=positive
INSTRUMENTTYPE=LC-ESI-Orbitrap
INSTRUMENT=Orbitrap
COMMENT=DB#=CCMSLIB00010119329; origin=GNPS
NUM_PEAKS=73
COMPOUND_NAME="methyl 2-[(5,6,7-trimethoxy-3-oxohydroisobenzofuran-4-yl)methylthio]benzoate "
PRECURSOR_MZ=405.1
COLLISION_ENERGY=205060
PARENT_MASS=404.09272354800925
51.41605 0.0016837250423459823
53.039101 0.0024684718023651876
65.039146 0.0019466955259915385
67.054573 0.0022465532720489147
79.05452 0.01262853277344022
80.06234 0.0020882950171852996
81.878647 0.002347695765758744
91.054253 0.020842493174369064
92.383171 0.0019181376454146457
93.070084 0.004114714626453997
95.048882 0.0027516707847527098
103.054153 0.003175874302488641
105.069839 0.010575935106976036
106.041443 0.0022983144305945336
107.048653 0.006850321603382205
107.085419 0.0022989093864398853
108.056824 0.002359594882665783
109.064873 0.006767027785032934
113.904549 0.001809260725715241
118.657532 0.0020389136820210887
119.049026 0.011800354236710322
120.057022 0.0036161416280490744
121.064713 0.011427316921674658
122.036148 0.002185867775823017
123.044022 0.012795120410138762
129.033173 0.008362104406421477
133.064087 0.00214065113157627
135.043869 0.020879975392626236
135.080368 0.006687898657601126
136.051437 0.007463721079940052
137.059753 0.008601276656252956
146.386353 0.0018895797648377525
147.043762 0.010859134089363558
148.051605 0.007907558140572597
149.005554 0.0033603106145477413
149.059662 0.023222316555776813
150.068008 0.007306652736767141
151.038956 0.01648920125392894
151.050568 0.001783082668519756
152.045929 0.002320327796872555
159.043777 0.0027445313146084865
160.160583 0.0017271568190566737
161.05899 0.0018175901075501682
163.038696 0.12837005301651538
163.07428 0.002779038753638899
164.046219 0.011703376433917957
165.054459 0.023772055756882002
166.062302 0.0018967192349819758
174.45369 0.0017640440814684938
175.0383 0.0039659756651160135
176.046753 0.00892195785689765
177.054413 0.017338798201091507
178.062149 0.0021073336042365617
179.033905 0.014145670179087659
179.070038 0.010756206728117673
180.041565 0.002886130805802247
191.033051 0.007685639610256325
192.041534 0.03758931030933539
193.049377 0.8376936655646101
194.057053 0.006881259307340506
204.041611 0.06508340983473912
207.007523 0.0036637380956772293
207.028763 0.07196883383299708
207.06398 0.04184443451529245
209.044296 0.006382686308935582
221.0439 0.019552628901646066
222.052048 0.31222092852378963
237.075363 1.0
243.074661 0.0015796077694093932
279.68515 0.0019722786273416717
373.072968 0.0027867731796284738
391.084564 0.006090562988867781
405.260345 0.004182539592824119
END IONS

BEGIN IONS
CHARGE=1+
PRECURSORTYPE=M+H
FORMULA=C22H20ClNO6
ONTOLOGY=
INCHIKEY=IQQCKAZHPZJGRN-UHFFFAOYSA-N
INCHI=InChI=1S/C22H20ClNO6/c1-3-29-20(25)12-18(15-6-4-5-7-17(15)23)24-21(26)16-11-13-10-14(28-2)8-9-19(13)30-22(16)27/h4-11,18H,3,12H2,1-2H3,(H,24,26)
SMILES=CCOC(=O)CC(N=C(O)c1cc2cc(OC)ccc2oc1=O)c1ccccc1Cl
IONMODE=positive
INSTRUMENTTYPE=LC-ESI-Orbitrap
INSTRUMENT=Orbitrap
COMMENT=DB#=CCMSLIB00010119179; origin=GNPS
NUM_PEAKS=41
COMPOUND_NAME=ethyl 3-(2-chlorophenyl)-3-[(6-methoxy-2-oxochromen-3-yl)carbonylamino]propano ate
PRECURSOR_MZ=430.105
COLLISION_ENERGY=205060
PARENT_MASS=429.09772354800924
51.02343 0.0016264143492521479
53.039101 0.019769464871613497
77.039108 0.0045128274223482315
77.392433 0.0009373996156743731
81.033829 0.0016066969164947552
91.05407 0.0013177817559524053
92.02581 0.0021103130115064915
95.049232 0.010679728370455508
102.046562 0.004860073321464534
103.054253 0.04609333301566358
104.061974 0.0014473143350391651
104.300056 0.0010132569611437864
105.044533 0.0014908569990450737
113.015289 0.11545186741888673
115.109512 0.0008845459417552513
116.025742 0.001362693686122022
119.049232 0.06211402098427781
125.015244 0.025852840583734597
134.707993 0.0008223812579229164
137.015259 0.025092897862876756
139.030899 0.043999451198121584
141.010208 0.5429490871239413
156.112396 0.0008763303447730045
159.044037 0.001961062999662339
165.010086 0.0429730492818062
167.026077 0.0013065537734100012
169.041458 0.31002431542853515
175.038956 0.06399484498674687
182.036301 0.0011622331197551972
203.033371 0.015585261328555143
206.020264 0.0016198418716663503
209.319992 0.00190519694018306
211.051773 0.0015869794837373627
220.060425 0.27275535513150295
221.044418 1.0
289.237701 0.0010340698068321452
312.133636 0.001177295047555983
342.05246 0.25624912538123795
384.062836 0.038486237916568425
384.118561 0.0017028194011870443
430.105652 0.013075670303711451
END IONS

BEGIN IONS
CHARGE=1+
PRECURSORTYPE=M+H
FORMULA=C13H15NO3
ONTOLOGY=
INCHIKEY=GREBWDHJEBOBJM-UHFFFAOYSA-N
INCHI=InChI=1S/C13H15NO3/c1-8-13(9(2)16)11-7-10(17)3-4-12(11)14(8)5-6-15/h3-4,7,15,17H,5-6H2,1-2H3
SMILES=CC(=O)c1c(C)n(CCO)c2ccc(O)cc12
IONMODE=positive
INSTRUMENTTYPE=LC-ESI-Orbitrap
INSTRUMENT=Orbitrap
COMMENT=DB#=CCMSLIB00010119022; origin=GNPS
NUM_PEAKS=44
COMPOUND_NAME=3-acetyl-5-hydroxy-1-(2-hydroxyethyl)-2-methylindole
PRECURSOR_MZ=234.112
COLLISION_ENERGY=205060
PARENT_MASS=233.10472354800925
65.448082 0.0009387106834197242
65.936302 0.001005230406713327
73.967659 0.0010807498572760644
82.437157 0.0010420119007697897
84.95993 0.011634690896541091
87.044273 0.0504481668533784
89.657593 0.0010588374778381716
90.487648 0.001088966999565274
103.054993 0.0012490056279598832
104.304657 0.001200094066714587
105.070023 0.004490472614808151
107.0495 0.0013213947386029215
107.119476 0.000961796940327504
120.080658 0.009506842336125728
129.069641 0.009045508490460093
130.065308 0.0020625027145916492
131.04953 0.0016986006989266455
131.072952 0.025247756622331922
133.052429 0.02708878778760487
133.063309 0.0027335693348771125
140.663437 0.0012685702524580017
145.064865 0.0013628717425389326
146.059906 0.02037029573495099
146.096344 0.07610873705262063
147.06781 0.12447405398192933
148.075607 0.10461713399380897
156.08078 0.008836949593310151
159.067719 0.03370241345294884
160.075577 0.050995193754345795
160.090439 0.0016082121337453383
167.47081 0.001038098975870166
172.076736 0.0012740483473174748
173.083633 0.0015917778491669188
174.091324 0.29089153254790495
175.062347 0.002630268117527047
178.086151 0.001945897552582863
191.093613 0.012960389852533599
192.101776 0.7035638528693282
199.096237 0.001218093521252856
210.95015 0.0023540156196136144
216.101608 0.0014235220784830998
228.961548 0.0011621386951882371
232.185257 0.0012705267149078134
234.112244 1.0
END IONS

BEGIN IONS
CHARGE=1+
PRECURSORTYPE=M+H
FORMULA=C21H23F3N2O3
ONTOLOGY=
INCHIKEY=IJLCQLHEYNFARK-UHFFFAOYSA-N
INCHI=InChI=1S/C21H23F3N2O3/c1-3-18(27)20-17(5-4-6-19(20)28)25-10-9-14-12(2)26-16-8-7-13(11-15(14)16)29-21(22,23)24/h7-8,11,25-26H,3-6,9-10H2,1-2H3
SMILES=CCC(=O)C1=C(NCCc2c(C)[nH]c3ccc(OC(F)(F)F)cc23)CCCC1=O
IONMODE=positive
INSTRUMENTTYPE=LC-ESI-Orbitrap
INSTRUMENT=Orbitrap
COMMENT=DB#=CCMSLIB00010115207; origin=GNPS
NUM_PEAKS=104
COMPOUND_NAME=3-({2-[2-methyl-5-(trifluoromethoxy)indol-3-yl]ethyl}amino)-2-propanoylcyclohe x-2-en-1-one
PRECURSOR_MZ=409.173
COLLISION_ENERGY=205060
PARENT_MASS=408.1657235480092
55.018162 0.0006614338987988769
65.038193 0.00038153754625695833
69.033737 0.0004254628862544127
74.148438 0.00039256995723306316
78.033043 0.00039195704551216843
79.054489 0.0009047598519940776
80.049507 0.0016536358229739334
80.840263 0.00043833403239320164
91.054337 0.001491929280611212
92.884323 0.0004929853275063134
94.065178 0.007835769895778447
103.053841 0.002251429054753243
105.069794 0.003344557108968962
106.064232 0.001394578468942435
107.072723 0.0008055703051626167
107.085487 0.0004431351742068769
108.080711 0.00722551412567428
109.044701 0.000772881680048232
109.064774 0.0007144507626562695
112.075607 0.009739575852830907
115.054123 0.004432373261603594
116.049492 0.0004236241510917286
117.05719 0.0032511902234860007
118.064972 0.0006294603373588694
120.080818 0.003250373007858141
122.095917 0.004361071198072842
124.075943 0.0009966966101282845
128.061722 0.008370433220305602
129.069717 0.05138529285637088
130.065033 0.003259566683671562
131.072723 0.0016835663453442918
131.083832 0.0004161670584875096
132.08078 0.009782071065479606
133.044342 0.00046428062857774445
133.064667 0.001891241266774117
134.06015 0.0004403770714628507
134.095963 0.0024828032293909967
135.060089 0.00227339172475197
136.075653 0.0009746317881760749
141.057083 0.0023220160546096173
142.064972 0.00058573930126838
143.072708 0.0009885244538496883
144.080826 0.0019207631813305454
145.065781 0.00048603899466950675
145.088303 0.013785201818549937
146.096191 0.002173691418153097
148.055603 0.0008372374107421768
148.075378 0.003594522939140522
148.111679 0.0014846764919139578
149.075287 0.001480692565728142
150.091217 0.13307978537465964
152.107147 0.0004215811120220795
154.064865 0.003463155526962089
155.072647 0.004979601276409089
156.080612 0.04954114364015218
157.064835 0.001205393051092934
157.088425 0.043043564334993845
158.059692 0.008185946792316294
159.061523 0.00048225937239065604
160.075836 0.0035288392330513054
161.06337 0.01577787997513213
162.091141 0.022221727352758684
163.098251 0.000546206495270671
164.106995 0.011748904777830738
168.1017 0.04778790966253285
172.075394 0.0005793037281989855
173.08316 0.010948442070342243
174.072449 0.0007098539247495591
174.090912 0.005709987743808621
175.036148 0.0019926781565821916
176.087158 0.025065433433803186
176.106247 0.004842921962649569
180.102249 0.0032110445057673973
184.086365 0.004473846954717469
187.042068 0.00040472603969747496
199.036652 0.0006932031563319195
201.037598 0.007317655187715451
202.046295 0.0018319931337542948
202.065369 0.009764398777527142
205.522354 0.0005056521697381376
207.048279 0.0022113854889881214
210.136047 0.0006799234023792007
214.047241 0.020622742824897865
215.07074 0.003551210510863962
216.063248 0.0032331093277196067
222.070648 0.0007607255975838203
225.052338 0.004736275323213889
227.054886 0.20618115341405108
228.062698 0.044675237487969054
228.08403 0.0007769677581875302
240.061417 0.0029221587813190227
241.071152 0.004026319246510847
241.09491 0.0006819664414488498
242.078278 1.0
243.065689 0.0005962609524770725
248.930908 0.00043046833197505285
254.968033 0.0004199466807663603
268.094116 0.0004223983276499391
275.116272 0.0004935982392272082
308.541687 0.00043894694411409637
353.146271 0.04116243611161449
374.136139 0.0005315987659226804
391.16217 0.03475148166300929
409.172516 0.4903878076331617
END IONS

BEGIN IONS
CHARGE=1+
PRECURSORTYPE=M+H
FORMULA=C15H10O4
ONTOLOGY=
INCHIKEY=CZYNUKPCSYBXCE-UHFFFAOYSA-N
INCHI=InChI=1S/C15H10O4/c16-9-5-6-11(12(17)7-9)15-8-13(18)10-3-1-2-4-14(10)19-15/h1-8,16-17H
SMILES=O=c1cc(-c2ccc(O)cc2O)oc2ccccc12
IONMODE=positive
INSTRUMENTTYPE=LC-ESI-Orbitrap
INSTRUMENT=Orbitrap
COMMENT=DB#=CCMSLIB00010115112; origin=GNPS
NUM_PEAKS=73
COMPOUND_NAME="2',4'-Dihydroxyflavone "
PRECURSOR_MZ=255.065
COLLISION_ENERGY=205060
PARENT_MASS=254.05772354800925
51.02367 0.00019591976201071719
54.925541 0.00019979424642754088
55.01844 0.0012246507244547862
57.98645 0.00016468403764080062
59.37212 0.00021103025123632953
63.023548 0.00032870387795300285
65.039017 0.014741250860689038
68.997513 0.005776321217636063
69.034111 0.0002664169284711137
72.789383 0.00020752476533539383
77.038971 0.001167640453750095
79.054581 0.00544086466684231
80.025848 0.0003098665037169221
81.033768 0.0011105748332680206
89.038933 0.0020163554902182185
91.054581 0.00036794687011768837
92.361359 0.000260549852068495
93.033623 0.01048990825958898
93.03994 0.0004936093147033363
95.013062 0.0008734010371810284
95.049248 0.015667418685642046
98.036346 0.0013952018384982055
105.033203 0.0023637675929267413
105.044762 0.00046023339894126945
107.049179 0.21979337559104337
111.044128 0.004526246495436596
115.054077 0.0012544473546127397
121.028473 0.5337665744908374
128.062225 0.0011728986826014987
129.069733 0.001528760851323856
131.086807 0.0003927251204595655
133.028595 0.0011254270235325113
134.037048 0.0019263936520447316
135.044083 0.36953216154164625
137.023209 0.009658554603293385
137.031967 0.0002664353783969081
139.039368 0.0037928988449608455
141.070084 0.003967619642233799
145.039505 0.0009115370337980501
152.061981 0.0010030486657382665
153.070068 0.004000571209702594
154.07814 0.0008030699200527816
155.085724 0.00181955013176937
157.063919 0.0018469113717224628
161.023514 0.009299352998002242
163.038696 0.0010249118278046285
165.069778 0.01182212205142511
168.056839 0.0012029351617947792
169.065842 0.0015772657062373295
171.043991 0.00045167263337266857
171.079605 0.0005322065594652179
179.034164 0.0014391680116662572
181.064636 0.005710842430991742
182.071487 0.0003948653118517157
183.080368 0.0004308980169281759
184.050522 0.0003340174565817896
185.059799 0.007664910971728072
186.067535 0.001134854935613449
187.039185 0.001866449843138731
187.07576 0.0017854177690497328
193.064941 0.0010008900244203218
199.075516 0.005791653105971207
209.059113 0.0014026925083707312
210.065445 0.0003526334317083377
211.073624 0.0018212475249424548
213.054459 0.026186883726353652
227.069427 0.0019124639580699607
237.054443 0.0010302623062850042
238.062744 0.0003101063527522492
254.016815 0.00037095420802217533
254.05629 0.0010114802818263066
255.064941 1.0
256.119354 0.000441322225002011
END IONS

BEGIN IONS
CHARGE=1+
PRECURSORTYPE=M+H
FORMULA=C23H21N5O2S
ONTOLOGY=
INCHIKEY=DFLVMUQOXCEBDN-UHFFFAOYSA-N
INCHI=InChI=1S/C23H21N5O2S/c1-15-8-10-17(11-9-15)28-21-20(22(30)25-14-24-21)26-23(28)31-13-19(29)27-12-4-6-16-5-2-3-7-18(16)27/h2-3,5,7-11,14H,4,6,12-13H2,1H3,(H,24,25,30)
SMILES=Cc1ccc(-n2c(SCC(=O)N3CCCc4ccccc43)nc3c(O)ncnc32)cc1
IONMODE=positive
INSTRUMENTTYPE=LC-ESI-Orbitrap
INSTRUMENT=Orbitrap
COMMENT=DB#=CCMSLIB00010122138; origin=GNPS
NUM_PEAKS=61
COMPOUND_NAME="9-(4-methylphenyl)-8-(2-oxo-2-(1,2,3,4-tetrahydroquinolyl)ethylthio)hydropurin -6-one "
PRECURSOR_MZ=432.149
COLLISION_ENERGY=205060
PARENT_MASS=431.1417235480092
79.90123 0.0005139069165332506
82.384888 0.0005214819602990628
105.069542 0.0006510550773458481
118.065018 0.01584659287156487
130.065018 0.003240922672225597
135.026306 0.0006267351999924515
144.077713 0.0005170964086451715
145.076385 0.0007301279026205532
146.059647 0.002613257203700502
146.083801 0.000607864038330253
146.096252 0.0011981858700449413
157.075592 0.0026793062695181966
158.059464 0.003374881340926274
159.067947 0.000712452800500325
162.036789 0.01674044803593069
164.052536 0.002250585371474166
169.075562 0.002456972090216379
172.072845 0.0008739208386663192
172.08757 0.005630250950568321
174.090363 0.000691986892782166
175.032318 0.0030627098004720184
184.085922 0.002931807728378599
185.071838 0.0005469978971944297
185.094467 0.002635317857474621
189.047806 0.018155120683072262
189.065796 0.0011277512525733554
190.031662 0.024828734240752697
193.04277 0.0068199315083148065
198.066116 0.0029570578742646393
201.046906 0.0005880626081354109
202.042587 0.005389577191622958
205.284149 0.0006139772315447681
207.057648 0.0005361004658120334
211.074249 0.001287225858169399
212.081467 0.12327785699088165
213.089127 0.024103656367309354
216.058487 0.02072173156463592
217.04277 0.0023866703682494566
228.059601 0.0010663535294188784
230.037811 0.08197685784260893
232.532211 0.0006794947153438094
237.076843 0.00297167637977761
238.084579 0.013226557997126534
239.093048 0.0011236314919287908
244.05336 0.5639705136770073
253.052933 0.004634066247611702
256.040161 0.001860935751801166
257.048523 0.07677931465522454
262.063965 0.02806593583884772
270.056885 0.0005854046980421436
271.064117 0.6771113673631765
272.04718 0.0008563786320507544
279.029846 0.008926325257229216
280.038513 0.0032249752116659926
299.05899 1.0
321.042755 0.0007593649136464945
432.08902 0.2651214817742454
432.145264 0.015109022820683165
436.033722 0.000558958492614133
484.046539 0.0006232799168712039
693.90155 0.0006304562741230259
END IONS

BEGIN IONS
CHARGE=1+
PRECURSORTYPE=M+H
FORMULA=C10H11N3O5S
ONTOLOGY=
INCHIKEY=SCYCMFQAMTUOEU-UHFFFAOYSA-N
INCHI=InChI=1S/C10H11N3O5S/c11-9(14)5-6(10(15)16)12-19-8-4-2-1-3-7(8)13(17)18/h1-4,6,12H,5H2,(H2,11,14)(H,15,16)
SMILES=N=C(O)CC(NSc1ccccc1[N+](=O)[O-])C(=O)O
IONMODE=positive
INSTRUMENTTYPE=LC-ESI-Orbitrap
INSTRUMENT=Orbitrap
COMMENT=DB#=CCMSLIB00010123440; origin=GNPS
NUM_PEAKS=45
COMPOUND_NAME=3-carbamoyl-2-[(2-nitrophenylthio)amino]propanoic acid
PRECURSOR_MZ=286.049
COLLISION_ENERGY=205060
PARENT_MASS=285.0417235480092
51.023602 0.02196888730554566
54.03434 0.11767118999039199
57.98764 0.07239477064913474
58.065632 0.026189936414375316
59.966869 0.05854411590072438
65.039124 0.019928533644244368
68.049873 0.06845980287376796
69.974998 0.13378890436247046
70.029129 0.059580486014401225
70.995407 0.2052714534011292
71.990593 0.11360127818980686
78.034103 0.4253111809221535
84.081017 0.019453530675475814
87.049782 0.02295127980913517
87.055496 0.44896416966242403
90.034027 0.0273126707041919
96.002869 0.06370437542507368
96.044571 0.09846595632131792
98.005981 1.0
100.039413 0.01944813291446708
104.280197 0.018222841165484557
106.021263 0.024522028262676642
106.028763 0.4327708866362233
109.010651 0.06104867700877676
113.005653 0.017990737442109012
117.044701 0.05106281914261964
119.059982 0.01652254644773348
119.157898 0.013694119679157086
126.00238 0.013947814446567564
136.021088 0.06044952553680733
137.820023 0.01232848614394749
138.000793 0.12451015318845743
139.032593 0.01555634722717017
140.01651 0.05872763977502132
153.995697 0.9206421176495989
159.054443 0.020576264965292395
161.018417 0.016382204661506406
163.032333 0.07453228400859324
163.048233 0.016689877039004222
198.950119 0.020900130625816412
210.968506 0.057680474139327004
225.99176 0.05054463408578122
241.017242 0.15126685450874977
251.01239 0.02252485668944522
286.072174 0.08299057550927876
END IONS

BEGIN IONS
CHARGE=1+
PRECURSORTYPE=M+H
FORMULA=C7H6O3
ONTOLOGY=
INCHIKEY=YGSDEFSMJLZEOE-UHFFFAOYSA-N
INCHI=InChI=1S/C7H6O3/c8-6-4-2-1-3-5(6)7(9)10/h1-4,8H,(H,9,10)
SMILES=C1=CC=C(C(=C1)C(=O)O)O
IONMODE=positive
INSTRUMENTTYPE=LC-ESI-Orbitrap
INSTRUMENT=Orbitrap
COMMENT=DB#=CCMSLIB00010102228; origin=GNPS
NUM_PEAKS=17
COMPOUND_NAME=salicylic acid
PRECURSOR_MZ=139.039
COLLISION_ENERGY=205060
PARENT_MASS=138.03172354800924
55.018009 0.010604708479709343
65.038681 0.09503417439212267
67.644272 0.0072898663455342756
78.85128 0.008438584634833077
83.049179 0.02714396361736499
92.85791 0.007284078309134674
93.033516 0.033697967387639444
93.069656 0.015177094571708178
95.048927 0.009557058748966292
95.085434 0.010827824614148879
111.044243 0.019417476652776745
121.028404 1.0
131.739059 0.006750229604252151
139.039124 0.01908129265421562
139.111526 0.009866907063322617
139.122864 0.008509330534363813
158.06076 0.007907921792664075
END IONS

BEGIN IONS
CHARGE=1+
PRECURSORTYPE=M+H
FORMULA=C22H22O6
ONTOLOGY=
INCHIKEY=BETRPSLREOEBMM-UHFFFAOYSA-N
INCHI=InChI=1S/C22H22O6/c1-4-5-10-27-18-8-6-14(11-19(18)25-2)12-20-21(23)16-13-15(22(24)26-3)7-9-17(16)28-20/h6-9,11-13H,4-5,10H2,1-3H3/b20-12+
SMILES=CCCCOc1ccc(C=C2Oc3ccc(C(=O)OC)cc3C2=O)cc1OC
IONMODE=positive
INSTRUMENTTYPE=LC-ESI-Orbitrap
INSTRUMENT=Orbitrap
COMMENT=DB#=CCMSLIB00010115046; origin=GNPS
NUM_PEAKS=167
COMPOUND_NAME=methyl 2-[(4-butoxy-3-methoxyphenyl)methylene]-3-oxobenzo[b]furan-5-carboxylat e
PRECURSOR_MZ=383.149
COLLISION_ENERGY=205060
PARENT_MASS=382.1417235480092
53.039162 0.001237480786537105
57.070309 0.006799351818494245
65.039047 0.0014316116867631556
67.05455 0.0017991848576238585
71.117783 0.0010140885246583923
71.237099 0.0007795050450182506
77.038841 0.0009740161873921798
78.046799 0.0017775110551947748
79.018417 0.0012211822253803061
79.054283 0.00147371486277372
79.79821 0.0008920480789233367
89.038528 0.008511115549574
91.054153 0.0071019467914026834
92.368652 0.0009055293914390347
95.049133 0.006854417795000673
103.017754 0.0008240193019210455
103.054413 0.006825182358949002
105.033386 0.008207569971295866
105.069893 0.011944805847322269
106.041077 0.0017862393408619897
107.048767 0.0014806974913074917
110.036392 0.0034869674077862667
117.033287 0.0054163247079895855
118.04142 0.00419708690268366
118.647728 0.0009015973419552895
119.012688 0.013564144810866518
119.049133 0.0017489583266358864
121.028214 0.007610676217796342
121.064911 0.008431316549721466
123.043907 0.031568964829467965
128.061295 0.0011940381211419681
129.082474 0.0008184193721068326
131.049377 0.00426286015239967
131.504745 0.0008143922620861176
133.028137 0.003459296149661097
134.036102 0.2869936548647109
135.044189 0.004401380638498467
136.015549 0.012658140116742636
137.023056 0.0034857056952046694
137.059677 0.0043960226809601766
141.069595 0.003951994912774871
145.02829 0.0034313569936590127
147.007782 0.00186301368726549
147.044312 0.0016172649154649113
148.05191 0.005164371075684987
149.02243 0.0009786741537036933
149.05925 0.017586009218314092
151.038742 0.025778965792517622
151.052658 0.0011899937273872588
152.061798 0.023932708685359787
153.07045 0.003891467276326186
153.658569 0.0009688137834598399
155.049088 0.005847026717265144
161.060577 0.001387641867481187
163.038818 0.0021018057561332884
165.018173 0.03476814078251207
165.033371 0.0016883010621822428
165.069687 0.023759007158715217
166.07724 0.007278076682673478
167.049591 0.0013607829448537578
167.08519 0.021115148937046902
168.056519 0.01033715068795829
169.050751 0.0008554152047220268
169.064621 0.005384816460917641
173.023804 0.004401959643587282
175.038727 0.014346432537057882
176.062851 0.0009069120901585934
177.069794 0.004848346641462834
178.07753 0.015374244346507894
179.033691 0.35089291572236986
179.047226 0.013523899636260361
179.082687 0.007835684508803538
180.056366 0.016859366473717975
181.06456 0.01193211094470332
183.044189 0.003952020838375862
183.079681 0.0019085736100749513
184.05191 0.001924111686935993
189.05455 0.00865768161384723
191.033661 0.0010114959645592194
192.05687 0.016819441048190716
193.064911 0.007914731666227314
194.072632 0.006421780007517733
195.045013 0.0019847775932566336
195.080383 0.02380681396694396
196.034363 0.010357217103125888
196.053528 0.010018257153893054
197.059464 0.020105467764557104
202.062119 0.001583155466426796
205.049011 0.06344821589347191
207.043304 0.01209243486123616
207.079178 0.0010381474823787148
208.05159 0.02848679975556652
208.338852 0.0015787049049232162
208.358429 0.001656991578051234
209.060242 0.010152499915828216
211.039078 0.0017333683985728612
211.074844 0.01582287822980273
212.046814 0.010589700609085699
212.08165 0.0014473830940331227
213.054474 0.00347680457219751
218.05687 0.01619405505920128
221.060608 0.008040194291293278
222.068192 0.005022488903324264
223.038269 0.006198059354693125
223.074738 0.01980189626067798
224.046539 0.014335707980114304
225.054031 0.017566824273580216
226.062546 0.0010571595897726476
227.034393 0.0012774494213993505
227.069199 0.0029633221189553686
228.041382 0.0011295265840075546
228.078003 0.0034991265146513866
229.049194 0.0034638763391696354
235.038055 0.029747622224863178
236.046249 0.02989219201786004
237.054062 0.01293784278397538
239.069778 0.09803281206282956
240.04071 0.008657768032517202
240.077484 0.015597109454499776
241.048721 0.004916219864859175
242.057678 0.004107833700336141
243.065201 0.0019816665211376265
244.034363 0.0010472387264598136
249.054291 0.005008307599581789
250.06218 0.0013076700302887068
251.070419 0.009306366076261226
252.04126 0.0221680826538579
253.04924 0.02077554948965627
253.079651 0.001754791586859025
255.064774 0.0809358720234904
256.036743 0.004358378708320189
256.072632 0.02372154466528217
257.044128 0.0016129266982322958
263.033691 0.013480128579919329
263.066864 0.0026570284269721105
265.05014 0.0060144801740707075
266.056549 0.02768341723203489
267.064636 0.4854644488455745
268.036469 0.022847912404929956
268.072357 0.0048389788576378235
269.043488 0.004121928585408643
270.052124 0.005738614495784739
271.062164 0.0012836888493713595
271.095673 0.004932224602538068
279.063019 0.006664659679475227
280.037323 0.01290011239266542
281.044403 0.04015871272684987
281.079895 0.006298702537743009
283.05954 0.014426871035068213
284.031128 0.11039994595030705
284.067627 0.036101762339393495
286.047394 0.00961928808023137
294.050781 0.011224074139752262
295.059509 0.4484746309698104
297.075836 0.0010502288124408594
297.957611 0.001068834752085922
298.046112 0.016724302734418075
299.056244 0.0015651976668065266
299.091675 0.0053780758046597914
309.075714 0.006399397571994875
311.054352 0.23201148718442235
312.062042 0.20169097831257798
316.057434 0.0034540678201277655
324.136841 0.0015030712849633519
326.077179 0.001879882611644107
327.085571 0.8386544073832793
383.148163 1.0
END IONS

BEGIN IONS
CHARGE=1+
PRECURSORTYPE=M+H
FORMULA=C18H25N5O4S
ONTOLOGY=
INCHIKEY=HRBPBWKDJGGGCX-UHFFFAOYSA-N
INCHI=InChI=1S/C18H25N5O4S/c1-23(2)15-9-3-7-13-12(15)6-4-10-16(13)28(26,27)22-14(17(24)25)8-5-11-21-18(19)20/h3-4,6-7,9-10,14,22H,5,8,11H2,1-2H3,(H,24,25)(H4,19,20,21)
SMILES=CN(C)c1cccc2c(S(=O)(=O)NC(CCCNC(=N)N)C(=O)O)cccc12
IONMODE=positive
INSTRUMENTTYPE=LC-ESI-Orbitrap
INSTRUMENT=Orbitrap
COMMENT=DB#=CCMSLIB00010115202; origin=GNPS
NUM_PEAKS=95
COMPOUND_NAME=5-(amidinoamino)-2-({[5-(dimethylamino)naphthyl]sulfonyl}amino)pentanoic acid
PRECURSOR_MZ=408.17
COLLISION_ENERGY=205060
PARENT_MASS=407.16272354800924
55.01833 0.0015295683704368071
59.04826 0.015105281002653946
60.052872 0.0021181465466127525
60.056091 0.04632230500842616
68.049843 0.005815967437797609
70.065514 0.43214532068658545
71.049522 0.0314759048721379
72.044701 0.032522785691738026
72.056023 0.0018565933616265066
73.063744 0.009794715823967692
82.407013 0.0011728138345934987
85.075989 0.0025099752643507685
86.071678 0.009455331359157952
87.0793 0.01828767843990039
88.075783 0.004833556304918236
91.054337 0.0055554163722940685
95.061043 0.001561302154055828
103.054192 0.010411687385486972
105.069931 0.005223380783690839
112.0868 0.023899547543053557
114.054764 0.006926315824635772
115.05426 0.012271621145389164
115.086487 0.0013936141606163703
116.070328 0.004723323161820584
117.057098 0.00454728417269191
117.069763 0.0027137395591676394
118.065086 0.02422857677320867
119.068916 0.01215971780315367
127.053757 0.004936440571809377
128.051422 0.0013047595664831117
128.06189 0.029456300074657903
129.069824 0.07117687241849846
130.064804 0.010801177824432007
130.097488 0.06952571355082666
131.049164 0.03743283711716948
131.072845 0.08148300321847374
132.080536 0.011369045531298697
133.064636 0.012826127259153108
133.084595 0.0014036353554434295
139.053375 0.0017627281700797186
141.069595 0.00664137985171972
142.065308 0.0014490647719927648
142.077545 0.0019421075574840789
143.073334 0.00243348014383755
143.08519 0.0026836759746864617
144.080734 0.04987882705254947
145.064621 0.007089995340144406
145.087784 0.0041531171761609136
146.05986 0.0026325678810684597
146.096344 0.07194850442018202
147.025742 0.0013782483285482128
147.067764 0.002817625945541487
148.07547 0.0016975904037038335
153.069962 0.0018592656802470559
154.064972 0.04396598806475696
155.07283 0.10250412956736832
156.08049 0.011894824219891739
157.088272 0.0018081575866290538
158.060028 0.0058613968543469435
158.095428 0.004371913263218373
159.044571 0.012936026362423192
159.067413 0.03222348600623652
160.075562 0.022458833766750008
161.059525 0.005486604167814929
168.08078 0.0221244598993538
169.088623 0.015432305993843647
170.059814 0.0012636726676921689
170.096161 0.06640878791978368
171.104172 0.030066924879453377
172.075287 0.010036894698954956
173.083023 0.010692948920299768
174.013397 0.004963497797842437
174.091263 0.43005723772445387
184.075378 0.02490701166300058
186.053802 0.0027508179800277586
186.09111 0.08678421528198807
187.062622 0.0273695532718366
191.03923 0.005114817839731031
200.070038 0.0016030571325019083
201.076965 0.0015653106319866517
202.086105 0.16256549268369266
206.063187 0.027359532077009543
212.116776 0.0012967426106214644
213.101593 0.002247085920054248
217.05513 0.011410800509744776
234.057846 0.04248251719052463
237.044495 0.005720432047112978
252.041473 0.0013605442176870747
252.068634 0.013126095024309748
261.069794 0.0016341228364657918
303.115936 0.005145883543694915
349.121857 0.005155236658866837
366.150665 0.003722873878252504
391.143341 0.032446958650879945
408.169403 1.0
END IONS

BEGIN IONS
CHARGE=1+
PRECURSORTYPE=M+H
FORMULA=C20H8I4O5
ONTOLOGY=
INCHIKEY=LAINPTZBIXYTIZ-UHFFFAOYSA-N
INCHI=InChI=1S/C20H8I4O5/c21-11-5-9-13(7-3-1-2-4-8(7)20(27)28)10-6-12(22)17(26)15(24)19(10)29-18(9)14(23)16(11)25/h1-6,25H,(H,27,28)
SMILES=O=C(O)c1ccccc1-c1c2cc(I)c(=O)c(I)c-2oc2c(I)c(O)c(I)cc12
IONMODE=positive
INSTRUMENTTYPE=LC-ESI-Orbitrap
INSTRUMENT=Orbitrap
COMMENT=DB#=CCMSLIB00010122930; origin=GNPS
NUM_PEAKS=51
COMPOUND_NAME=Erythrosin(E)
PRECURSOR_MZ=836.662
COLLISION_ENERGY=205060
PARENT_MASS=835.6547235480093
63.41209 0.012133600885171502
73.952621 0.016218142265063858
87.934448 0.01210734579824841
89.275948 0.014455300714513437
104.280571 0.02132663203495677
176.062622 0.03360651126155693
177.070404 0.027474073101663447
189.069748 0.7060405453556626
193.065216 0.02886559270858729
200.061935 0.34312022954447424
201.069168 0.10315998724752921
203.049576 0.019447517956604092
204.057709 0.026630159593421226
205.064957 0.3001931624252199
212.575027 0.020051384955835194
216.057465 0.02619132456913527
217.064743 0.246362732779476
219.080811 0.054640586613656394
221.060471 0.05683101100838287
227.050247 0.019312491795285335
228.05722 0.05422800667629353
229.064178 0.48474766986103557
231.044113 0.01948502522363708
232.05397 0.015029161900118148
233.061401 0.024045908894848377
244.051666 0.029964555632653826
245.05928 0.3041501790972001
255.044403 0.02952947133507117
256.051422 0.32128724940457215
257.059296 0.23780357444254824
260.044128 0.01978133263319768
261.054688 0.015584269452206366
272.047302 0.023749601485287774
273.054382 0.4980965061980759
284.046631 0.19408885471560114
285.05484 0.20737767942538868
287.034821 0.054494308272227746
301.048553 0.10832098719126831
311.034454 0.031944939331995575
329.044159 1.0
354.961426 0.06207077621289125
382.960724 0.03128481143221499
383.96521 0.0871143784108171
397.945099 0.016221892991767156
398.953247 0.02394463927385931
427.954346 0.07881026948971363
509.860626 0.14362657764941958
526.864929 0.01872362770286743
582.853699 0.1906231832417531
746.537354 0.015696791253305326
836.663574 0.7294563321643568
END IONS

BEGIN IONS
CHARGE=1+
PRECURSORTYPE=M+H
FORMULA=C16H18N2O6
ONTOLOGY=
INCHIKEY=XDQGAOKGLVNKPO-UHFFFAOYSA-N
INCHI=InChI=1S/C16H18N2O6/c1-16(15(22)23)10-9(13(20)18(2)14(10)21)11(17-16)7-5-4-6-8(24-3)12(7)19/h4-6,9-11,17,19H,1-3H3,(H,22,23)
SMILES=COc1cccc(C2NC(C)(C(=O)O)C3C(=O)N(C)C(=O)C23)c1O
IONMODE=positive
INSTRUMENTTYPE=LC-ESI-Orbitrap
INSTRUMENT=Orbitrap
COMMENT=DB#=CCMSLIB00010124218; origin=GNPS
NUM_PEAKS=177
COMPOUND_NAME="3-(2-hydroxy-3-methoxyphenyl)-1,5-dimethyl-4,6-dioxo-1,2,3,5,3a,6a-hexahydro-2 ,5-diazapentalenecarboxylic acid "
PRECURSOR_MZ=335.124
COLLISION_ENERGY=205060
PARENT_MASS=334.11672354800925
53.03912 0.002750972906194071
55.054779 0.011774688390051628
56.049709 0.0008958920614862108
57.90646 0.000629783654426866
58.02914 0.010858009535332773
65.039124 0.005585467522133721
68.04969 0.0013086316316190721
70.065468 0.1429195032368408
70.26123 0.0008037560049955721
71.049561 0.0028009735709969177
73.956177 0.0007700476916453384
79.054466 0.0031655851604019455
80.049721 0.125570021623883
81.033707 0.015834480196272274
81.070259 0.0011146215614477272
82.065422 0.008813787599048602
82.400017 0.0007224815161400086
84.04438 0.000756002561082741
88.039528 0.005571235123163622
91.054283 0.00906042009172781
93.033531 0.010792278324299817
94.0411 0.0010380287827796962
95.049141 0.004374028194007823
96.044327 0.004188819738989039
97.064812 0.0011612513949155504
98.060043 0.1019262615663991
99.044121 0.014380341012024692
103.054123 0.06387556838302531
105.069923 0.0008867159095186472
107.049156 0.004490321875066129
108.044273 0.20100117436018344
109.028236 0.000794954389843011
109.05201 0.0038009868670538503
109.064453 0.003234312665954922
110.03614 0.02068079931399837
110.06031 0.0009430837001765379
111.043983 0.013422088570840549
111.091629 0.013226393085001693
112.038727 0.001367059374759477
112.075401 0.00294123760821539
114.055 0.010780854951442239
115.054207 0.0012880321067939293
118.065086 0.005300632274324247
119.048927 0.009149747122105931
121.132431 0.0006990729652023463
122.035721 0.0014972109179728795
122.059837 0.0015769872595684325
123.044189 0.005211492512353629
124.039047 0.004620660686687033
124.051224 0.0025494720997226742
124.075378 0.0012831631281988954
125.059547 0.037395253757119246
126.054626 0.0011651840314730777
127.038803 0.0014938400866378561
127.086578 0.007552347606119857
129.069702 0.0040236490035728935
131.049011 0.12980210036500486
133.052277 0.0009000119664512393
133.064682 0.0014672479727726717
134.059479 0.0009957061226844026
135.043396 0.0026897361369411467
135.080002 0.004417661732955626
136.040436 0.000647386884731988
136.051331 0.005234339258068787
137.046875 0.06612447468870841
137.059479 0.035125560658203506
137.071304 0.0014936528182303548
138.055145 0.007034363190971266
139.049957 0.001755641320324671
140.070587 0.0010565683551223247
143.04866 0.0009385892583965068
144.044312 0.0027762541412067465
144.057068 0.0034650273439965212
144.080475 0.01711670698243366
145.064499 0.0031472328564668183
146.036545 0.0013683702536119863
146.060104 0.01255391223366453
147.043747 0.0027090247829137802
147.067154 0.0007028183333523723
148.051605 0.006522184096455215
148.075623 0.0008629328217659823
148.546799 0.0006951403286448191
149.059509 0.009744886121145057
150.054672 0.009574659138726377
150.090683 0.0012369078315460748
151.039551 0.001178667356813171
151.062805 0.001065557238682387
151.074951 0.008490000522478856
152.070374 0.11879390156685604
153.018173 0.001139715528052901
153.054443 0.01671407990630587
155.05101 0.008929519474884405
155.081268 0.23148472573324477
157.064636 0.004840701065501058
159.043854 0.029354697412643502
159.06665 0.001631856902966313
159.079971 0.0041157850600635325
160.075699 0.001244585836253628
161.046356 0.010260623315403632
161.059479 0.030008264154823033
161.082382 0.0012833503966063968
162.054672 0.06336432563054677
163.07518 0.089650068381059
164.07016 0.0016052647891011285
165.065674 0.11910027268152816
166.049728 0.009684211157114635
166.085632 0.006247461342650811
167.081482 0.00527085659753154
171.067291 0.0007400847464451307
172.051666 0.005445765290137752
172.075378 0.046470842589854656
173.059738 0.0028378654472746736
173.083191 0.004233951425196852
174.091064 0.003160341644991909
175.038452 0.004077956841748271
175.074966 0.004049679312215574
176.070358 0.20489954079913797
176.10672 0.004388635129792924
177.078186 0.0558095435351294
178.085999 0.022436815171138044
179.093735 0.0013032008478015345
180.101562 0.0010363433671121845
184.060257 0.001775117234704806
186.029465 0.0008050668838480811
186.091415 0.0011245467870452958
187.075119 0.20795819569885668
188.070175 0.00613191673522251
189.054306 0.029428668433606513
189.077927 0.042571352540455125
189.095825 0.0014509556213200589
190.085815 0.0014753005142952274
191.070816 0.005255500588116434
192.101227 0.0031099664433740597
199.062622 0.0015831671170159754
200.048996 0.0012247353850584905
200.069794 0.00942802797565286
201.054245 0.014774353741407424
202.026291 0.0009372783795439977
202.086365 0.006631923383250976
204.101608 0.19178813051634208
205.048508 0.0033987343277410618
206.080856 0.0009904626072743663
206.117126 0.0015142523430554976
207.064987 0.0008119958149256292
209.286209 0.0009194878808313744
209.306854 0.001485600276707799
211.070938 0.09360817344200643
214.085312 0.0008490749596108862
215.053574 0.0031039738543340183
215.069946 0.0075778161095400335
216.065704 0.0011048836042576596
217.049103 0.004780026101470637
217.073029 0.008488127838403844
218.08107 0.005702697545229534
220.0961 0.0013157478311041214
222.075989 0.00584633241378303
224.091446 0.0030212012182184445
230.081436 0.009546007072378678
231.065216 0.0007880254587654629
232.07016 0.0009904626072743663
232.09642 0.027373584929687268
243.052353 0.0016554527223114764
244.094589 0.0012524511093686826
245.129807 0.0010816623217274985
248.091309 0.07108484026660279
257.0672 0.0031167081060441064
257.093292 0.001172862036180631
258.075012 0.004140504489853704
263.138763 0.019322167017576452
266.102478 0.0010537593290098051
272.091064 0.039232544103114476
273.08606 0.0009893389968293586
274.094269 0.0068866084174527414
289.117706 0.40985676026778634
291.132965 0.028119100459949937
335.123047 1.0
336.713837 0.0009792265028242884
END IONS

BEGIN IONS
CHARGE=1+
PRECURSORTYPE=M+H
FORMULA=C17H27NO4
ONTOLOGY=
INCHIKEY=CNRAIZKPBXFGHK-UHFFFAOYSA-N
INCHI=InChI=1S/C17H27NO4/c1-19-14-8-6-5-7-13(14)18-11-12-9-15(20-2)17(22-4)16(10-12)21-3/h9-10,13-14,18H,5-8,11H2,1-4H3
SMILES=COc1cc(CNC2CCCCC2OC)cc(OC)c1OC
IONMODE=positive
INSTRUMENTTYPE=LC-ESI-Orbitrap
INSTRUMENT=Orbitrap
COMMENT=DB#=CCMSLIB00010115297; origin=GNPS
NUM_PEAKS=60
COMPOUND_NAME="(2-methoxycyclohexyl)[(3,4,5-trimethoxyphenyl)methyl]amine "
PRECURSOR_MZ=310.201
COLLISION_ENERGY=205060
PARENT_MASS=309.19372354800925
65.039177 0.0007344371795293031
66.047363 0.0004527955535197472
67.054779 0.0006903065244435511
68.268021 0.0002977477045080055
68.997757 0.0008267786962537476
78.046753 0.0028885714917686127
79.054626 0.0044005027673464075
80.062592 0.0004207981442361606
81.033813 0.0017084254332588803
84.960716 0.00043475674560148367
89.038918 0.0008059481680624195
90.046768 0.000608165524101458
91.054451 0.011045441260380099
92.0625 0.0016384176787189527
92.372253 0.0004714786045779488
93.033546 0.0006906286460135201
93.070152 0.0008540516558444557
95.049393 0.005141167630561778
97.028473 0.0003963169049185172
104.279633 0.0003807476957033492
105.033653 0.0006206208914735923
106.041359 0.004057658043042743
107.049171 0.008683860657080758
108.057007 0.0038785584501399833
109.064827 0.006030330537532854
110.072884 0.0014224888529830713
118.041656 0.000636082726832104
120.057289 0.0023089674135377387
121.028862 0.0007086674539317837
121.065063 0.004339084921338986
122.036949 0.000838911942055913
122.072769 0.0007574151848537578
123.044182 0.011081733623929939
123.081123 0.0012691589856778309
124.051224 0.00043690422273461027
134.03566 0.000493597619049153
135.044067 0.0028290863751810054
136.051804 0.006195901024496916
137.05983 0.034710102398152136
138.031296 0.0007296053559797682
138.055496 0.000636726969972042
138.067688 0.02467687448447127
148.052002 0.15603976869953295
149.059586 0.004275412224341782
151.039108 0.014154988149147441
151.075897 0.0005893750991866001
154.712814 0.00031127681044670316
159.871613 0.0003414488641671321
165.054794 0.00481335524619
166.062546 0.008698248753872706
167.033859 0.0005601694101760781
176.876968 0.0003308188523581554
180.458252 0.0006670063975491273
181.086044 1.0
181.718246 0.0005992534939989826
197.228302 0.0004101681324271839
263.905579 0.0004724449692878558
286.925201 0.0005425600976844398
310.106964 0.0007675083273794529
310.20163 0.009020477697698355
END IONS

BEGIN IONS
CHARGE=1+
PRECURSORTYPE=M+H
FORMULA=C12H23NO4
ONTOLOGY=
INCHIKEY=XYDQDGJOQQAPIM-UHFFFAOYSA-N
INCHI=InChI=1S/C12H23NO4/c13-10(7-4-5-9-12(16)17)6-2-1-3-8-11(14)15/h10H,1-9,13H2,(H,14,15)(H,16,17)
SMILES=NC(CCCCCC(=O)O)CCCCC(=O)O
IONMODE=positive
INSTRUMENTTYPE=LC-ESI-Orbitrap
INSTRUMENT=Orbitrap
COMMENT=DB#=CCMSLIB00010117965; origin=GNPS
NUM_PEAKS=82
COMPOUND_NAME="6-aminododecanedioic acid, chloride "
PRECURSOR_MZ=246.17
COLLISION_ENERGY=205060
PARENT_MASS=245.16272354800924
55.01841 0.002099180505564185
55.054951 0.0036955045148834844
57.034019 0.003978108711108366
59.04969 0.0009012158331093764
64.43396 0.0007822853644222967
66.926407 0.0008117293154079329
67.054626 0.0429844157786092
69.070259 0.03917748611587811
71.04937 0.007317399152302877
72.932892 0.0008558952418863873
72.937462 0.0011096328194978998
79.021469 0.001402628998423594
79.054466 0.023649554631374723
81.070152 0.0775467069105819
83.049347 0.009593532029967013
83.085449 0.007075208222136713
85.064972 0.012345964114751737
90.288719 0.0008027806636377886
90.948021 0.0016425105991006894
91.054367 0.0645079439491093
93.069977 0.01885134528546055
93.497124 0.0009456704257739646
95.042793 0.001507414823990123
95.049217 0.035478517606761024
95.085449 0.01005337726447798
97.06485 0.049995540107424234
99.044113 0.0033658477303188114
99.080437 0.016479952566372295
101.059341 0.0009912796831830874
104.282463 0.001047280923293023
105.061897 0.001760575069229368
105.069893 0.05096314916334436
107.049026 0.0059023575078755355
107.085426 0.01589107354665957
109.064789 0.03232916951604248
109.101189 0.0073895656988363
111.044144 0.006297541516692555
111.080391 0.003877364212147708
112.935272 0.0007970073399151148
113.059677 0.02527156993125992
115.05407 0.003978108711108366
116.909607 0.001268976554243696
118.651176 0.0010319816154279375
119.085548 0.06899150715213775
121.101196 0.02004180463707588
123.080421 0.004526863130948508
123.11676 0.026471555267017666
125.059822 0.004391767355837942
126.941032 0.0008798545353354835
127.075119 0.006628352966001763
129.069824 0.02695709179209453
131.085571 0.021630045993183435
133.064804 0.0018206176359451753
133.101166 0.04757420813813485
134.919586 0.010005458677579787
137.096069 0.0019941060138115225
137.132217 0.001032558947800205
142.077423 0.006508267832570148
147.081543 0.006589383030873715
147.116776 0.2968409238588087
149.095993 0.034441628666168816
149.132538 0.0011610154006296964
151.112152 0.006079887212347754
152.930542 0.0033338057836579723
157.101135 0.14605989419229615
157.969696 0.001025053626960729
165.127365 0.05654941719740351
167.953796 0.01382133699208102
175.11171 0.2286804866565499
183.137344 0.0009433610962848951
185.964249 0.023743371141868173
192.137939 0.003994562683717986
193.122253 0.3362198989726082
208.981171 0.0009696297192230607
210.148834 0.0020997578379364523
211.132721 0.06005786602367236
223.552917 0.0009095871525072535
228.159363 0.003683669201252003
228.902451 0.0009970530069057613
229.143219 0.0952006648559599
245.967575 0.0038080843274756228
246.169785 1.0
END IONS

BEGIN IONS
CHARGE=1+
PRECURSORTYPE=M+H
FORMULA=C25H25N3O4
ONTOLOGY=
INCHIKEY=ABCGVRYRJFTVKW-UHFFFAOYSA-N
INCHI=InChI=1S/C25H25N3O4/c1-5-28-20-9-7-6-8-18(20)19-12-16(10-11-21(19)28)15-26-27-25(29)17-13-22(30-2)24(32-4)23(14-17)31-3/h6-15H,5H2,1-4H3,(H,27,29)/b26-15+
SMILES=CCn1c2ccccc2c2cc(C=NN=C(O)c3cc(OC)c(OC)c(OC)c3)ccc21
IONMODE=positive
INSTRUMENTTYPE=LC-ESI-Orbitrap
INSTRUMENT=Orbitrap
COMMENT=DB#=CCMSLIB00010118459; origin=GNPS
NUM_PEAKS=94
COMPOUND_NAME="N-[(1E)-2-(9-ethylcarbazol-3-yl)-1-azavinyl](3,4,5-trimethoxyphenyl)carboxamid e "
PRECURSOR_MZ=432.192
COLLISION_ENERGY=205060
PARENT_MASS=431.18472354800923
69.033722 0.0070924499007135764
79.054459 0.016539425175572258
81.033691 0.007458621907060557
81.069946 0.0074424350919651714
83.049263 0.002223718408914823
83.333191 0.0013855038758672524
87.43042 0.0015158733596084715
91.054077 0.0017844869938940708
91.549362 0.0014314394322190243
92.376877 0.0014891869887755373
93.033287 0.002279716039515078
94.040779 0.0014804373589942476
95.049149 0.0019371680335775793
96.056923 0.002929813532264916
107.085457 0.011526324792382222
109.064682 0.020668375469362954
111.043877 0.003098681387043811
111.079933 0.0017691751417768136
113.022903 0.0018824828474445175
114.49398 0.0015036238779146658
119.085297 0.04893230455186365
122.036087 0.00954015883202942
123.043877 0.00616411418091872
124.051666 0.015791331829271973
128.046432 0.0059532481031896334
135.080017 0.013047885411348532
137.02359 0.002629701230766673
137.059601 0.001961666996965191
138.067413 0.04289243511383924
139.039062 0.011470327161781967
139.075089 0.031604975214486235
141.017929 0.00618555077388288
142.06456 0.003180490425498871
143.07045 0.002156783741087955
143.085464 0.0019196687740149995
151.038559 0.008810002226780779
152.046677 0.04350665912448579
152.060699 0.0032819861309618336
154.062225 0.1670636811179927
155.072388 0.003121867905964229
156.041534 0.00980002283653373
156.080948 0.0014305644692408953
166.049728 0.0022377178165648866
166.065018 0.008012473472216206
167.033707 0.011041157821009699
167.071991 0.017255582373170836
167.085876 0.005035411939132326
168.080276 0.023968735822865496
169.051743 0.00656222233596741
169.085846 0.0737602540192518
170.059845 0.08789396848645842
170.095673 0.03611803425567556
176.058914 0.002110848184736183
179.057693 0.00402832955130586
179.073151 0.005275151795139668
180.041458 0.00781998161702783
180.080215 0.00905936667554754
182.059708 0.011374081234187778
182.096359 0.007064451085413448
183.067642 0.010614613369171817
184.035904 0.002798569085545568
185.080505 0.00245514611662994
191.045074 0.018935073809689427
192.067566 0.03731192123933256
193.059586 0.003439916948514116
193.075089 0.08426374709020125
194.080444 0.0039018974009662217
194.09668 0.03929414986628378
195.064972 0.47540982172191837
196.060165 0.006096304550113723
196.111877 0.0169270337748834
197.083282 0.008687507409842721
198.091003 0.4156756617235633
205.076324 0.010474181811182114
206.083542 0.002350588040743526
207.040024 0.0094504751267712
207.091309 0.06062268490264506
208.112106 0.0015333726191710513
210.091309 0.006471226186241995
211.062424 0.3057015650025308
212.107468 0.0916497470700771
220.098831 0.0020181021090545106
221.106873 0.35205579113933744
222.114822 0.08849113071903145
222.133484 0.001965166848877707
223.122147 0.015524905602431697
224.072083 0.0015281228413022774
226.085785 0.01725295748423645
237.086365 0.015886702793888034
243.817322 0.001423127283926799
264.112183 0.025634227851734023
415.209778 0.0031389296840377444
432.190674 1.0
598.184265 0.0016029321759323059
END IONS

BEGIN IONS
CHARGE=1+
PRECURSORTYPE=M+H
FORMULA=C28H44O
ONTOLOGY=
INCHIKEY=MECHNRXZTMCUDQ-UHFFFAOYSA-N
INCHI=InChI=1S/C28H44O/c1-19(2)20(3)9-10-22(5)26-15-16-27-23(8-7-17-28(26,27)6)12-13-24-18-25(29)14-11-21(24)4/h9-10,12-13,19-20,22,25-27,29H,4,7-8,11,14-18H2,1-3,5-6H3/b10-9+,23-12+,24-13-/t20-,22+,25-,26+,27-,28+/m0/s1
SMILES=C=C1CCC(O)CC1=CC=C1CCCC2(C)C1CCC2C(C)C=CC(C)C(C)C
IONMODE=positive
INSTRUMENTTYPE=LC-ESI-Orbitrap
INSTRUMENT=Orbitrap
COMMENT=DB#=CCMSLIB00010125983; origin=GNPS
NUM_PEAKS=80
COMPOUND_NAME=ergocalciferol
PRECURSOR_MZ=397.347
COLLISION_ENERGY=205060
PARENT_MASS=396.3397235480092
55.054878 0.21192189458860705
55.476639 0.016074464613852205
57.070599 0.22778455179835935
62.990841 0.015650849805652397
67.054863 0.28919724993846135
69.070541 1.0
71.086037 0.06532254832929754
79.054817 0.280501697321495
81.065262 0.03167951822402354
81.07048 0.5475564867448637
82.378479 0.015914177929668493
83.086113 0.30719515476251813
85.101707 0.014557465638542079
91.054817 0.2825167299226617
93.070343 0.40200472845718344
95.086037 0.43893936011265866
97.101517 0.07794512470876482
105.070236 0.44583741205699334
107.077568 0.023327437073165147
107.085838 0.6610108365247557
109.101379 0.22045143599695455
111.080902 0.024575383400024044
117.070129 0.14127553853463623
118.078056 0.022382890541368276
118.628349 0.021306679947563356
119.085892 0.3383594657873797
121.101547 0.23232409967541948
123.116638 0.07772759278022978
125.132881 0.1213083973048939
129.070236 0.027666626594995622
131.085861 0.1883654765380366
133.101105 0.28604876149913844
135.116745 0.17598333018484488
136.088409 0.025949269264455857
137.095627 0.017734576700040645
137.133026 0.03179400871272619
143.085114 0.06616405342126203
144.094177 0.020030110998528798
145.101074 0.26130164236606046
147.11676 0.23456811325399143
149.132584 0.1076439574782325
151.112061 0.018518836547653805
153.690125 0.016343517262303434
156.093704 0.018249783899202572
157.101089 0.08239308019486281
159.116867 0.2951965515464803
161.13237 0.16192962269659447
163.148331 0.027809739705873936
169.099869 0.018158191508240454
171.116745 0.09993302306410895
173.132477 0.11083251758860133
175.147995 0.08356660770406499
183.11644 0.02310990514463011
185.132828 0.09258845821383388
187.148254 0.12312307155083091
189.16449 0.08975481861844327
191.178406 0.01645228322657095
199.148331 0.09976128733105498
201.163788 0.09376198572303605
203.179398 0.01772312765117038
213.163406 0.08449398066255646
215.179688 0.03532604028920298
225.163803 0.021850509768900947
227.180099 0.018856583489326624
253.195435 0.05560230583844247
255.210007 0.03384911298493878
257.225586 0.025542828029561444
259.240265 0.023562142575005583
271.207642 0.027340328702193065
271.24176 0.10961891840835322
273.220215 0.022606146994338445
283.240906 0.02728308345784174
285.258972 0.05829283232295477
295.242249 0.06523668046277055
309.257446 0.0651737106939841
313.251556 0.03398650157138196
327.268463 0.06572898956419196
346.93634 0.018049425543972934
379.336334 0.3205332966963769
397.347015 0.9479869709823856
END IONS

BEGIN IONS
CHARGE=1+
PRECURSORTYPE=M+H
FORMULA=C22H21NO5
ONTOLOGY=
INCHIKEY=OWEIRXJAOJVYMR-UHFFFAOYSA-N
INCHI=InChI=1S/C22H21NO5/c1-13-19(27-12-20(24)23-14-5-3-6-15(11-14)26-2)10-9-17-16-7-4-8-18(16)22(25)28-21(13)17/h3,5-6,9-11H,4,7-8,12H2,1-2H3,(H,23,24)
SMILES=COc1cccc(N=C(O)COc2ccc3c4c(c(=O)oc3c2C)CCC4)c1
IONMODE=positive
INSTRUMENTTYPE=LC-ESI-Orbitrap
INSTRUMENT=Orbitrap
COMMENT=DB#=CCMSLIB00010119665; origin=GNPS
NUM_PEAKS=89
COMPOUND_NAME="N-(3-methoxyphenyl)-2-(6-methyl-4-oxo(1,2,3-trihydrocyclopenta[2,1-c]chromen-7 -yloxy))acetamide "
PRECURSOR_MZ=380.149
COLLISION_ENERGY=205060
PARENT_MASS=379.1417235480092
53.039089 0.002918416045945899
73.950882 0.0013542245594214686
79.054482 0.007931945867461586
80.049797 0.0017869966281050878
81.530586 0.001251932979550795
82.396263 0.0015579794472610291
83.013046 0.003104777223847936
86.639023 0.0014101329127920797
91.054314 0.010388600328161328
92.050003 0.002801215571843062
92.06205 0.002206930482311011
92.375687 0.0014995862781850575
93.057426 0.010287965292094227
94.04155 0.005796246768704243
94.065277 0.02033531759671938
103.054337 0.0015227778914350888
104.049469 0.03236969419373114
105.070084 0.010981228873889805
106.065224 0.018268365065810345
107.049156 0.007807705082193563
108.057121 0.016110302625704755
108.080383 0.0019182777245383006
109.05217 0.0025937334604454612
109.064903 0.020892330450671025
115.054337 0.0029751526712182967
117.069946 0.010273470533812957
119.085632 0.007506214109943156
121.05278 0.015522643711386999
121.063026 0.011670765232127341
122.061493 0.009437744184910045
122.072617 0.01793912698485008
123.044319 0.0020127007213419992
123.067879 0.10842369089555243
124.075798 0.03971563769067855
125.06031 0.0018735510418418117
128.062073 0.015639844185489835
129.069748 0.006986059355621026
130.077866 0.007836280462805208
131.085953 0.00315985730531676
132.044662 0.013674769098500579
132.054398 0.0016391500936361386
133.064926 0.0019712871262526576
133.101105 0.001524020299287769
134.060196 0.005974325227588412
136.075806 0.3026294319794125
141.069733 0.0017199066040603545
142.077118 0.0014606574988010764
143.085602 0.012223636726570052
144.056503 0.0013306188102205439
145.064865 0.08509955414123527
145.100723 0.015085730283194446
147.080536 0.12450376159684197
149.047043 0.00220071844304761
150.054199 0.0016345945981763108
151.039154 0.017173389611648153
153.069962 0.0016913312234487089
155.086075 0.012817507680151208
157.064331 0.0022562126604673276
158.0728 0.04494658888641328
159.080368 0.0024823308896551326
160.051422 0.002471977490882797
161.059723 0.045988969074812
161.096069 0.011864166721194567
163.038208 0.00251960312523554
164.070541 0.051195072113493126
165.078598 0.006136252384387737
171.080399 0.02473882516256907
173.096603 0.012800942242115473
174.067596 0.0087676722163645
175.039703 0.0016022919940066245
187.075485 0.02709028909174188
188.083313 0.03534401859304765
189.054474 0.0023278581799718884
189.091034 0.0439953186072111
199.074997 0.006853949987286026
201.091049 0.08534265194440971
211.075424 0.00193277248281957
211.76123 0.001720320740011248
215.069733 0.018420767095739123
216.078033 0.061596510656132156
217.086014 1.0
229.062485 0.002678217194427718
229.086029 0.04867836793991384
231.101822 0.0023377974427933306
257.079834 0.014117066294054747
265.051392 0.0012217010551355757
329.579865 0.0014788794806403866
362.137146 0.0020988409991278298
380.149048 0.8644214148043663
END IONS

BEGIN IONS
CHARGE=1+
PRECURSORTYPE=M+H
FORMULA=C18H17NO5
ONTOLOGY=
INCHIKEY=SIMPBZKYKMVOJU-UHFFFAOYSA-N
INCHI=InChI=1S/C18H17NO5/c1-23-15-8-7-11(9-16(15)24-2)14(20)10-18(22)12-5-3-4-6-13(12)19-17(18)21/h3-9,22H,10H2,1-2H3,(H,19,21)
SMILES=COc1ccc(C(=O)CC2(O)C(O)=Nc3ccccc32)cc1OC
IONMODE=positive
INSTRUMENTTYPE=LC-ESI-Orbitrap
INSTRUMENT=Orbitrap
COMMENT=DB#=CCMSLIB00010122149; origin=GNPS
NUM_PEAKS=53
COMPOUND_NAME="3-[2-(3,4-dimethoxyphenyl)-2-oxoethyl]-3-hydroxyindolin-2-one "
PRECURSOR_MZ=328.118
COLLISION_ENERGY=205060
PARENT_MASS=327.1107235480092
51.023319 0.0011104854103891775
52.074841 0.0008525839191561134
52.47617 0.0008632154965872637
53.03627 0.0012768181540700765
53.039059 0.025216043942024292
55.018478 0.002953177847084993
65.038902 0.006349795359282156
66.046829 0.014814931673252528
68.997253 0.004686124968362483
69.033813 0.0054210756275545795
73.942131 0.0008656161753620395
77.038818 0.00423754099159008
79.054512 0.052920219957048424
81.033653 0.004831880465402446
81.070053 0.011072616417487642
82.041473 0.004404216689381661
91.054039 0.0022730998456020595
92.025711 0.002259724635285451
94.041367 0.03328369644171392
95.012573 0.0013591271406338202
95.049171 0.007741503140430791
98.036369 0.0064026102923272245
98.98407 0.0022912764134682194
105.033348 0.005632678313845538
105.044823 0.0010614429725616134
107.048859 0.005685493246890607
109.028488 0.01578514885237266
109.064697 0.02786845103404094
111.007347 0.005896067070849518
114.252434 0.0009180881542964262
121.028343 0.005286980570277814
122.036163 0.04342862198980603
124.051514 0.001593364798229808
126.03112 0.020277847702310343
135.043396 0.0011849064524072292
137.023453 0.001444865668304387
137.059555 0.0019448927616791307
141.054718 0.007242504909388095
146.060089 0.004084240504115107
148.038498 0.006688634020636235
154.025192 0.004214563066174367
155.070251 0.035989261420886313
162.054443 0.0013749030297252045
165.054504 1.0
165.605087 0.0010165159840622366
181.086136 0.002124600715676638
196.077057 0.0014602986032850888
209.217072 0.0014599556491744065
224.994461 0.001326546500119005
250.086197 0.004531452664444781
268.094818 0.003365751642235759
310.108276 0.004224165781273471
328.132019 0.004414505312702129
END IONS

BEGIN IONS
CHARGE=1+
PRECURSORTYPE=M+H
FORMULA=C13H12ClNO6
ONTOLOGY=
INCHIKEY=NSQLRHGFKIZZIG-UHFFFAOYSA-N
INCHI=InChI=1S/C13H12ClNO6/c1-17-10-8(7-3-6(4-16)21-15-7)9(14)11-13(12(10)18-2)20-5-19-11/h3,16H,4-5H2,1-2H3
SMILES=COc1c2c(c(Cl)c(-c3cc(CO)on3)c1OC)OCO2
IONMODE=positive
INSTRUMENTTYPE=LC-ESI-Orbitrap
INSTRUMENT=Orbitrap
COMMENT=DB#=CCMSLIB00010118366; origin=GNPS
NUM_PEAKS=310
COMPOUND_NAME="[3-(4-chloro-6,7-dimethoxy-2H-benzo[3,4-d]1,3-dioxolen-5-yl)isoxazol-5-yl]meth an-1-ol "
PRECURSOR_MZ=314.043
COLLISION_ENERGY=205060
PARENT_MASS=313.03572354800923
53.039028 0.001134718088684165
53.18259 0.0006793359237825942
55.01833 0.008454016351671388
60.546711 0.0006842396731798616
61.758739 0.0007013313822441233
62.628479 0.0006823353044818936
65.038963 0.00838093620288687
66.034264 0.0008273529808321482
66.04644 0.0008013583481048866
67.018143 0.0015620584245081587
68.049591 0.0011527143728799615
68.997414 0.004249217875775745
69.033699 0.0017360701142849742
72.575607 0.0006193483097966058
72.984444 0.007028025070633035
77.038116 0.0007436559765564596
78.033592 0.0009732752323139375
79.017738 0.001099201612467064
79.054207 0.004143049320864035
80.049561 0.0014148983333726903
81.033531 0.0037834092922528
82.403679 0.0007523208541322134
83.012894 0.0017913444157434922
84.020271 0.0007978828752310951
85.028633 0.0007049020735528131
85.991798 0.0015658195526866453
86.249451 0.0008551091546050301
86.963287 0.0035951148372412246
86.999893 0.005741005095328888
88.978943 0.0009238568646016708
90.033836 0.0009284749586942429
91.042 0.0008053099131531699
91.054237 0.0014765998791868497
92.049522 0.0016675128411581305
92.997231 0.0011104373877850744
93.033333 0.0010967735423771548
94.028442 0.000783600109996336
94.040993 0.0016666082660265957
95.048973 0.003916524664240755
96.044456 0.0011001061875985988
97.02832 0.0013588622844349853
98.036041 0.0012266514875785648
98.999519 0.02997523939818902
100.006477 0.0008201639889973194
100.978561 0.003933140281130525
101.003418 0.0008300667062267524
101.015022 0.0008058812237625603
104.049187 0.00495102535019436
105.033302 0.003798977506358687
106.02784 0.000981606845367547
106.064888 0.00144160710436169
107.012253 0.000800025290016309
107.048737 0.0015759603160033244
108.044159 0.0011097232495233364
108.057198 0.0026342180014640787
109.027908 0.002983003128496897
110.036339 0.001195086576409747
112.978523 0.001335152894145285
113.015106 0.01169529948483018
113.986366 0.0029879068778941643
114.010513 0.013943501951216167
114.994209 0.008084092732091127
115.989037 0.0007033785785944388
116.001907 0.0009464712428900395
116.049026 0.0011943724381480092
119.035744 0.0009013377047482005
120.04393 0.005318235244380017
121.029053 0.0007214700812251337
122.99807 0.0008146413197732125
123.043694 0.0013322011226634348
123.994492 0.0007490358181282188
124.039719 0.0009768935328400765
124.051231 0.000765746653452887
125.014977 0.0011109134799595665
126.010063 0.0049104146877101944
126.994347 0.006732467048708419
127.017998 0.0008993857268327835
127.990868 0.0006695760342055088
128.003036 0.0008661068838357946
128.025726 0.0014043290870989686
128.973724 0.0012870675845215959
128.998047 0.0013188229325602104
129.009781 0.013373191135392235
130.004318 0.0010997729230764544
130.989166 0.0008664877575753883
131.025467 0.000892529999520099
132.044144 0.006452096367150097
133.028107 0.001498642946865828
133.051834 0.0035211301133251725
134.023499 0.0007472266678651494
134.035614 0.001091488919240294
134.059601 0.003162347050628023
136.038803 0.0028472216403317868
136.455139 0.0006999507149380966
137.058731 0.0016296635132860187
138.05632 0.0009189055059869543
138.067078 0.007476265852917227
138.994049 0.0016962688084974455
139.018585 0.0006890482041422304
139.965012 0.0010614475030298505
139.989548 0.0029587700368152556
140.00116 0.001238553791940864
140.972565 0.0015522033164961748
140.997452 0.0025902746937584696
141.009842 0.011555090339442294
141.982773 0.001034262639866359
142.005219 0.03127220969994005
142.017609 0.0016424703927798527
142.989227 0.016758063668377805
143.013504 0.0012260801769691744
143.025436 0.0038853406268115308
144.020615 0.00788232486854143
144.99353 0.0007539871767429354
145.004913 0.004625759176581445
145.999802 0.0013774774884576214
146.023178 0.0032150028451268346
146.05957 0.0010968687608120533
148.038879 0.005648690822694895
149.046677 0.0017453539116875677
150.054459 0.0012727848192868368
151.038712 0.003062510521637056
152.997147 0.0015700567730396239
154.005066 0.013181468816724318
154.988968 0.005839841830753422
155.012924 0.0011094852034360906
155.983551 0.0015767220634825114
156.02092 0.0035771661622628777
156.968765 0.0015872913097562333
157.004211 0.0076379467553747
157.976746 0.0013058256161965797
157.999634 0.0011850886407454156
158.013138 0.0028465075020700486
159.020096 0.0013415801385009266
160.039062 0.007666131412104624
161.046661 0.0013003029469724728
162.055267 0.005451779099325016
163.038605 0.0009199052995533875
164.033508 0.0027045368156365427
165.041519 0.0008534904412117574
166.005264 0.0031125478091761625
166.049744 0.0010116482615779904
166.989227 0.004964974850906975
167.012589 0.0015823875603589658
167.057755 0.003061939211027666
167.984329 0.0030137586829690785
167.997665 0.0009086219150179277
168.020508 0.00399093787111385
168.990799 0.006001570342428345
169.0065 0.006236521830540132
169.977188 0.0008779615789806448
169.98262 0.0008638216413982332
169.999954 0.016222698018161584
170.983841 0.01749967244858395
171.006226 0.0011782329134327311
171.020813 0.006728039391485644
171.991196 0.0034714260903082107
172.016586 0.0008830081560302597
172.039566 0.0007852664326070579
172.985336 0.0008792470278517731
173.000107 0.007168043779151124
173.036148 0.0035967335506344976
175.039139 0.002965149671953448
176.033081 0.005158791975142656
177.041183 0.003369828020271624
178.050049 0.006046418225265488
179.01387 0.0013443414731129802
179.057159 0.0012541220060467515
179.985291 0.0008532047859070623
180.041382 0.0016334722506819543
181.999817 0.0175263336103555
182.983902 0.0029459155481039723
183.007431 0.006664195430886271
183.992661 0.0030350400031688694
184.015793 0.003521034894890274
184.962814 0.0008046433841088812
185.000671 0.00892891829572713
185.994308 0.007335009304745458
186.011124 0.00676441283361683
186.979248 0.0033086501758494056
187.000641 0.0010797770517477915
188.034164 0.003612539810827631
188.995178 0.003132210415982681
189.041794 0.0033434525138047685
190.049454 0.004697506267277385
191.057709 0.002869264708010765
191.98494 0.0009320456500029327
192.026016 0.0014830747327599406
192.043411 0.00162009406057873
192.06575 0.0029900492926793784
194.000412 0.004193515091360184
194.044479 0.0040520681063186195
195.007812 0.006185722795521839
195.066452 0.005207686641462982
195.97876 0.011590463988007048
196.014633 0.0075644857328505885
196.983459 0.0020530046748442796
196.999802 0.005514147174183464
197.973663 0.0011462871285243198
197.994354 0.022727688225897737
198.029434 0.0010667797353841606
198.978622 0.010148571228340663
199.002335 0.009704900930931595
199.017807 0.003729801313405004
199.986862 0.04248798914662192
200.008255 0.003159062014624028
200.99498 0.04057290837472796
201.014557 0.0015018803736523735
201.030838 0.000957230926033558
201.988968 0.01513830287232122
202.006027 0.0008646309980948696
202.025085 0.0008992905083978851
203.056656 0.0008551567638224794
204.029129 0.0016957451071055044
205.036591 0.00443808364139671
206.043289 0.008830367215607291
207.007401 0.0033141728450735122
207.052048 0.004710313146771219
207.979553 0.004993683209028841
208.014725 0.0015315885253406726
208.985291 0.0011297667300694486
209.994919 0.026270052050205252
210.029449 0.0022770060429427525
210.075195 0.0008723913005390887
210.978989 0.04834135199513091
211.002716 0.025343862333948572
211.722748 0.0009373302731397937
211.972641 0.007611190375168251
212.009781 0.008833080941001896
212.98111 0.006968227893516843
212.996033 0.00632978828752311
213.01857 0.004279782993378129
214.002304 0.05277967368261487
214.026108 0.014572086449197918
215.010788 0.013286018658242756
216.003876 0.014022104769224792
216.018646 0.021129303968475843
217.01297 0.0030746508720866017
217.034836 0.0021557453660996473
218.044205 0.011012107214434201
219.052383 0.0015210192790669507
220.024017 0.0012992555441885905
220.060242 0.012018089979135737
221.067657 0.002888403613425342
221.994736 0.04640975082478208
222.039078 0.005138129574769705
222.979645 0.0014421308057536312
223.002457 0.01572660997234095
223.972061 0.001128719327285566
223.986679 0.000963277296649606
224.01033 0.028733400570244164
224.981033 0.020506575404240345
225.019547 0.003157633738100552
225.989487 0.1520026626883135
226.973267 0.0030809828980073446
226.996201 0.02538261623695222
228.003586 0.02076185602820294
229.013336 0.013587099349391478
229.026306 0.010365240776951959
230.021225 0.0010183611612383271
230.044327 0.0030546550007579387
231.029251 0.006136494864679369
232.036591 0.0010754446129599146
233.031372 0.0013346291927533438
234.039398 0.0036114924080437485
235.047577 0.001552250925713624
236.010742 0.009094693590885234
236.053818 0.0069165718925844645
237.018021 0.020582036013897322
237.061066 0.0012994935902758363
237.989288 0.03263211938715892
238.025787 0.003395441779259292
238.995377 0.005620601384399869
240.005173 0.1569332160750047
241.013062 0.3754975639315616
241.984894 0.003831113728136895
242.02121 0.005117800438918897
242.9935 0.003747035850121613
244.037033 0.007185183097432835
246.039062 0.004593908610107932
247.046249 0.004173662047683869
248.055969 0.0055419509571737946
249.988922 0.010037165659509541
250.997513 0.0036462471367816624
252.005234 0.01767677873749496
252.976929 0.167637862963152
253.01265 0.05085159559435728
253.988495 0.002558424127284957
254.02034 0.014104468715411904
255.029099 0.010571388688506983
256.000549 0.010673796115240206
256.036652 0.03599975738342788
257.005615 0.002590417521410817
259.036713 0.0015967179348111743
264.006012 0.0010406422750045515
264.049591 0.005920206189807666
265.012634 0.014008107659294729
265.990967 0.001646374348610687
268.000183 0.4970630349847765
270.015717 0.006721754974782349
278.064331 0.00735510039450902
279.073395 0.015234616319220946
280.001282 0.0009563739601194725
281.008087 0.021117925365505483
283.023102 0.0061144041877829415
283.995117 0.007213986673989599
284.031769 0.010928457819375962
296.030548 0.00127673638433512
298.012115 0.001160331847671833
299.01825 0.12040085437597266
314.041718 1.0
END IONS

BEGIN IONS
CHARGE=1+
PRECURSORTYPE=M+H
FORMULA=C19H22N2O2
ONTOLOGY=
INCHIKEY=UXMKYLOOFICPRA-UHFFFAOYSA-N
INCHI=InChI=1S/C19H22N2O2/c1-2-23-18-10-6-5-9-17(18)19(22)20-14-21-12-11-15-7-3-4-8-16(15)13-21/h3-10H,2,11-14H2,1H3,(H,20,22)
SMILES=CCOc1ccccc1C(O)=NCN1CCc2ccccc2C1
IONMODE=positive
INSTRUMENTTYPE=LC-ESI-Orbitrap
INSTRUMENT=Orbitrap
COMMENT=DB#=CCMSLIB00010115839; origin=GNPS
NUM_PEAKS=33
COMPOUND_NAME="(2-ethoxyphenyl)-N-(2-1,2,3,4-tetrahydroisoquinolylmethyl)carboxamide "
PRECURSOR_MZ=311.175
COLLISION_ENERGY=205060
PARENT_MASS=310.16772354800923
65.038818 0.00023306522547339822
69.857826 0.0001866529338543109
77.038651 0.00024372427905842032
79.054329 0.00041192701253686334
86.096939 0.0005449022908935069
91.054253 0.00790457250455543
92.395844 0.00018794349191169027
93.069801 0.0008642915108716132
103.05426 0.0008135773590612614
104.310783 0.00026752790545008404
105.069763 0.013260627434912617
115.053963 0.0031858142623108006
117.069687 0.03613323568429355
118.064819 0.0011756027933794563
118.076828 0.001486961874333869
119.085403 0.033210360676562155
121.028313 0.0016597054602364245
121.064491 0.00459988350562602
128.061996 0.0007453211773598643
129.069595 0.007039516218538704
130.064774 0.0038796565127151993
131.072784 0.026033519521028975
132.080383 0.0007501010220168249
133.084137 0.0007441262161956241
134.09639 0.006315226357669466
144.080719 0.014113208326374676
145.088074 0.0009943988824340805
146.096237 1.0
149.059631 0.0032296932362616986
271.385437 0.0002092138006351649
311.093903 0.0002540965419640248
311.173584 0.0007206571789299477
324.225922 0.0002280463885835896
END IONS

BEGIN IONS
CHARGE=1+
PRECURSORTYPE=M+H
FORMULA=C17H14N2O8
ONTOLOGY=
INCHIKEY=QVNCBRMSRLGETO-UHFFFAOYSA-N
INCHI=InChI=1S/C17H14N2O8/c1-25-17(22)13-12(9-4-2-3-5-10(9)19(23)24)15-14(27-16(13)18)11(21)6-8(7-20)26-15/h2-6,12,20H,7,18H2,1H3
SMILES=COC(=O)C1=C(N)Oc2c(oc(CO)cc2=O)C1c1ccccc1[N+](=O)[O-]
IONMODE=positive
INSTRUMENTTYPE=LC-ESI-Orbitrap
INSTRUMENT=Orbitrap
COMMENT=DB#=CCMSLIB00010120252; origin=GNPS
NUM_PEAKS=367
COMPOUND_NAME="methyl 2-amino-6-(hydroxymethyl)-4-(2-nitrophenyl)-8-oxo-4H-pyrano[3,2-b]pyran -3-carboxylate "
PRECURSOR_MZ=375.082
COLLISION_ENERGY=205060
PARENT_MASS=374.0747235480092
50.015911 0.007665088389340619
51.023869 0.007303622820770876
53.00296 0.008221048121709311
53.836769 0.00410180852049574
55.01836 0.09495810577363265
57.03397 0.039611672218618776
63.653069 0.003455941108635082
64.031464 0.01685768990474373
65.039124 0.03584197165706275
66.736229 0.0038908007012799
67.018288 0.47471805226938907
68.013832 0.0142622937283889
68.02636 0.021732887953930573
68.997543 0.06436931138974337
69.034157 0.014853115622193252
69.992859 0.005821063534454366
71.013481 0.005101802098518633
73.029083 0.024090670977342347
73.48394 0.003324749290600886
77.03923 0.0037201595953053512
78.034554 0.023536546095575532
78.97419 0.0036375913182208923
79.018173 0.003810067274797318
79.042137 0.014178808026003503
79.054947 0.006930230723288933
79.103416 0.00308805356295877
80.050011 0.006073355492212436
81.034103 0.02160995296360482
82.029266 0.005620147393548849
83.013046 0.1462054830840536
83.01844 0.005411891850235824
84.021187 0.020555831292826558
84.665421 0.0036412610194246457
85.028664 0.17991902804293916
89.038948 0.036585086150822885
90.033867 0.033859415581734796
91.041817 0.029564030322741047
91.054337 0.02892825458919071
92.025803 0.04641162854917445
92.036537 0.004052267554245065
92.049667 0.07938848099140648
93.033707 0.005151343064769309
94.029137 0.005703633095934246
94.065514 0.01560448694366183
95.01268 0.03020072348159232
96.04483 0.008818291992620231
97.02858 0.03387409438654981
99.008362 0.0051825355250012155
101.023354 0.16897414420274365
102.034073 0.005632073922461048
102.046806 0.004647676574554108
103.041832 0.05488313377803996
103.054039 0.04682355250929581
104.049492 0.1013204502356407
104.275284 0.005585285232113189
105.033524 0.02871724676997487
105.045174 0.005642165600771371
105.057404 0.004010983415702835
106.029137 0.017931994932142637
106.065437 0.02330443749443811
107.012962 0.00399630461088782
108.044533 0.007289861441256799
109.052261 0.005411891850235824
110.060051 0.004061441807254449
111.007698 0.03383189282270664
111.030884 0.003958690173549344
111.04435 0.006015557698253314
113.023468 0.036562150518299426
114.033867 0.23035631881263147
115.041771 0.02528882842036794
115.054283 0.08940584785235324
116.049454 0.147793546279978
117.046066 0.0031715392653441673
117.049248 0.004135753256630462
117.057716 0.03732820064458302
117.070221 0.004225660936122429
118.053047 0.02007510043513482
118.065239 0.032185114407522156
119.036919 0.028344772097793867
119.049698 0.002976127676244281
119.060928 0.007232981072598617
120.044357 0.21639861028415414
122.060738 0.004939417820252531
124.015213 0.005384369091207671
124.039703 0.004527493860131173
125.024063 0.017067780298658634
126.019058 0.004665107655271938
127.041641 0.03695939567360577
127.052582 0.0033761251074534383
128.049957 0.11426165153067824
128.062332 0.02010996259657048
129.018524 0.008777007854078001
129.034607 0.005910053788645394
129.045166 0.041453862222903155
129.0578 0.017054936344445493
129.069427 0.006371518715017427
130.028885 0.24940573776131714
130.040421 0.024520943443482473
130.053436 0.007016468701577146
130.065002 0.11577356842662478
131.037796 0.012055885879631965
131.049759 0.011545797412310196
131.059967 0.04176395197462034
132.033157 0.018574192642799543
132.044373 0.35270599179638296
133.041092 0.009339389563553261
133.052734 0.053466629113391013
134.024628 0.005096297546713003
134.059845 0.04730520079228849
135.031494 0.12128821191056571
135.042862 0.005681614888711724
135.054962 0.030635583074237138
136.038925 0.00669170014504494
137.046982 0.041666704892720875
139.042252 0.004438503605940145
140.037521 0.007079771047341898
140.049393 0.08369120565280773
140.061478 0.004348595926448179
141.01828 0.0914627153770572
141.044937 0.19136666094804897
141.057434 0.028169543865314627
141.068878 0.0040485978530413105
142.029617 0.038706173446592544
142.041519 0.009721038488743651
142.053085 0.14530273658793016
142.065659 0.05630055586798984
143.036255 0.049064822519488405
143.060577 0.06213538078195828
143.072342 0.008166920028953943
144.044373 0.17677409411132222
145.029037 0.005666018658595771
145.040054 0.027395236911322587
145.052765 0.017117321264909308
146.023865 0.08371505871063213
146.036255 0.005145838512963678
146.059937 0.0971479999669727
147.055511 0.024767730849434913
148.039352 0.03062182169472306
149.047928 0.01737511777447301
150.054901 0.25411121212983034
152.049469 0.0074916950074632544
153.044952 0.04660153558646871
153.057816 0.025527358998611936
154.028534 0.046384105790146304
154.065048 0.1068635339039107
155.03714 0.011195340947351714
155.048889 0.010466905258406597
155.060623 0.09512782945430626
155.072968 0.006414637704161533
156.044434 0.07244357146330253
156.068207 0.014581557733115475
157.039795 0.12672670909452874
157.052704 0.025827357072018803
157.075729 0.05100242475507038
158.024719 0.03156952203059246
158.047424 0.06484178541972667
158.060699 0.06444545768972126
159.030594 0.061187680446088875
159.055283 0.15490084008634808
159.06662 0.010726536618572174
160.039352 0.2835385460827316
160.076233 0.011981574430255952
161.034912 0.035945640716068795
161.047333 0.04366027007166009
161.071518 0.006320142898164874
162.019592 0.005571523852599112
162.054901 0.09088565486276694
163.050171 0.03730343016145768
164.050171 0.004097221393991048
166.065598 0.014985224865528387
167.036469 0.054287724757730915
167.060654 0.01976042355691294
167.0737 0.018356762846477134
168.031738 0.04739327362117858
168.044937 0.022995265168021858
168.057037 0.011676989230344392
168.069672 0.008522881045718056
169.039505 0.4799840734967757
169.075562 0.02909339114335963
170.023926 0.05784091294826547
170.047119 0.05531799337068478
170.060699 0.15892191518036122
171.029724 0.019609048382258097
171.055527 0.1072048161158598
172.039413 0.11810107641510559
172.075897 0.0055751935538028655
173.072479 0.013431106405738679
174.042557 0.00411373504940794
174.055847 0.05624826262583635
175.050781 0.01880446639333509
176.034393 0.042759358426138545
177.041946 0.08435358672008528
178.05011 0.05165379671873667
179.060318 0.168268644146322
180.044495 0.021298028361285755
180.068619 0.03752911678548854
181.039948 0.02042096977358861
182.045288 0.0036504352724340302
182.060532 0.045918971162570515
183.031845 0.02068977538676357
183.05452 0.06500783939919652
183.071335 0.006699956972753386
184.038391 0.03492271150552244
184.078812 0.004866023796177456
185.032639 0.15934851794529759
185.049225 0.04699786331647411
185.072098 0.031093378299405415
186.042007 0.014539356169272308
186.056442 0.09322600680546088
187.023529 0.012073316960349795
187.050491 0.11132680799297619
188.035034 0.16870992571607338
188.072708 0.005246755296066906
189.066055 0.005044004304559512
190.013184 0.007870591656750829
190.049957 0.042962109417645944
191.061264 0.0051476733635655554
192.029221 0.005693541417623923
192.067902 0.016249436930221548
193.038589 0.004635750045641909
193.077316 0.005579780680307558
194.046738 0.01643750911691393
195.054245 0.030609895165810863
196.038574 0.03222272884486063
196.05899 0.004259605672257151
197.034576 0.2557020276016576
197.071762 0.030150265090040707
198.055542 0.0863187117146954
198.079269 0.05290608225451763
199.049057 0.1209964706648673
200.033829 0.02449984266156089
200.072479 0.007988022095270948
201.043076 0.03092640689463462
201.065674 0.20318676852533973
202.035385 0.01586136602792459
202.050934 0.027696152410030393
202.071259 0.006930230723288933
203.045364 0.021239313142025693
204.02948 0.014147615565771597
204.067352 0.007616464848390882
205.060257 0.027977801977418493
206.045471 0.017580621041883217
207.055313 0.030778701421183535
208.022598 0.029302564111973593
208.062347 0.0705261525843412
209.047928 0.01616044667603052
209.069931 0.00394309394343339
210.056122 0.04497585795320581
211.049088 0.03280070678445184
212.033813 0.03746122731321909
212.072098 0.0051568476165749395
213.037811 0.004909142785321562
213.065079 0.039718093553527636
214.050858 0.07387200265686367
215.044525 0.06683902029986963
216.042511 0.02442186151098112
216.065659 0.01794850858755953
217.062393 0.0137109211225249
218.044724 0.1882171398899273
219.076889 0.004422907375824192
221.071472 0.007387108523156273
222.057846 0.034786015135682614
223.04866 0.023660398511202222
223.063583 0.029711735796192136
224.034088 0.006913717067872041
224.057678 0.01788979336829947
225.026611 0.03772361094928748
225.065552 0.01301367789381169
226.054016 0.050624445531083744
227.058548 0.018134745923650032
227.081192 0.005510056357436237
228.065964 0.06569774322550222
229.026016 0.012825605707119311
229.061981 0.09611864877931976
230.062408 0.05526019557672565
231.039795 0.014287064211514239
232.060898 0.005763265740495244
235.050018 0.22168114516695764
236.057831 0.5086141648631615
237.065887 0.020369593956736057
238.049713 0.08007196284060561
238.074142 0.005410974424934886
239.046783 0.03691811153506354
240.050293 0.035357571098167256
241.037186 0.017652180215356417
241.060822 0.02319159418242268
242.033966 0.024175074105028685
243.039185 0.15174397962581893
244.060715 0.06303262272627606
245.056381 0.017850344080359116
246.040436 0.014756785965594717
249.066315 0.004426577077027946
250.050476 0.06124639566534894
250.074829 0.009325628184039186
251.059631 0.04366852689936854
252.027573 0.003939424242229637
252.055511 0.007425640385795688
253.060623 0.482974879977835
254.044296 0.11711484421659678
255.051956 0.06236932423369758
256.024628 0.0038669476434555006
256.06015 0.02915669348912438
257.054871 0.06217207779399582
258.039398 0.021515458157608164
258.064362 0.017363191245560808
259.047577 0.014559539525892952
260.055115 0.10336355638083058
261.050964 0.0074320623629022566
263.044891 0.01608613522665451
264.052704 0.926044511640751
265.060577 0.006219226115061646
266.04361 0.029396141492669312
267.04657 0.007108211231670989
267.076752 0.029230087513199457
268.061829 0.06731975115756138
269.054718 0.02085491194093249
270.039429 0.016772369351756456
271.038879 0.020680601133754188
271.072845 0.005873356776607857
272.054901 0.05212351847281715
273.063538 0.004085294865078848
274.034088 0.00872471461192451
275.065826 0.0384878262249692
278.033325 0.008110957085596698
278.068848 0.014313669545241452
279.040741 0.006233904919876661
279.077576 0.004200890452997091
280.047333 0.030333750150228392
281.055389 0.5215159168702587
282.064606 0.1880474162092537
283.047058 0.607522703982635
284.053619 0.03533830516684755
285.044769 0.025976897396071768
286.036011 0.00703756948349873
286.070465 0.005387121367110486
287.033142 0.005004555016619159
289.047455 0.006109135078949034
295.036163 0.005523817736950314
295.070587 0.014146698140470657
296.080627 0.1402523103062641
297.063354 0.07968297451300771
298.059113 0.11865887099807616
299.068054 0.746346583095338
300.049866 0.15081371037066735
308.041382 0.05461524559016594
309.052521 0.00407245091086571
310.057892 0.0043715315589716395
311.063873 0.004234835189131813
312.049622 0.018508138021131975
313.044434 0.0063770232668230575
313.082123 0.06269409279022979
314.064514 0.02272921183074971
315.067963 0.03513371932473828
316.071014 0.0398483679462609
325.045013 0.3590848499138079
326.054749 0.04574833005659597
330.059174 0.0351722511873777
332.075867 0.022028298900832747
340.069061 0.004288963281887181
341.079071 0.007923802324205257
343.055725 0.24914702382645249
343.103729 0.008869667809472783
344.065399 0.004798134323908011
348.067383 0.00508070131659705
357.071228 1.0
358.052063 0.03554564328485964
375.081818 0.7673088337964802
END IONS

BEGIN IONS
CHARGE=1+
PRECURSORTYPE=M+H
FORMULA=C16H16BrNO3
ONTOLOGY=
INCHIKEY=GNWHZQLSJKLODU-UHFFFAOYSA-N
INCHI=InChI=1S/C16H16BrNO3/c1-10-8-12(5-6-13(10)17)18-16(19)11-4-7-14(20-2)15(9-11)21-3/h4-9H,1-3H3,(H,18,19)
SMILES=COc1ccc(C(=O)Nc2ccc(Br)c(C)c2)cc1OC
IONMODE=positive
INSTRUMENTTYPE=LC-ESI-Orbitrap
INSTRUMENT=Orbitrap
COMMENT=DB#=CCMSLIB00010119774; origin=GNPS
NUM_PEAKS=69
COMPOUND_NAME="(3,4-dimethoxyphenyl)-N-(4-bromo-3-methylphenyl)carboxamide "
PRECURSOR_MZ=350.039
COLLISION_ENERGY=205060
PARENT_MASS=349.0317235480092
50.127998 0.0007031035900246643
51.02354 0.0029254590298711976
52.031319 0.0006883307070430255
53.039051 0.02153715058920252
55.018299 0.003175955741298986
58.476589 0.0007686181145519321
58.960831 0.0008176469580707043
65.038963 0.009042074883529734
66.046753 0.018066165387777472
66.730972 0.0006065446012606193
67.054527 0.0010936215401479857
68.026047 0.0012199403946286653
68.997368 0.008133221430528912
69.033768 0.005409444368320087
73.943787 0.0006988215949575226
75.044357 0.0028745032885722117
77.038788 0.005149741367497945
78.046494 0.002577761030419293
79.01812 0.003458567415730337
79.054466 0.07147377706220882
79.481812 0.0006191764867086873
81.033737 0.008686026993696904
81.070198 0.014430751575774184
82.041489 0.004988738352973417
82.386253 0.0007568426281172924
83.049408 0.0017288555083584544
85.028709 0.0013933611948479035
90.046661 0.000839699232666484
91.054176 0.003567544190189093
92.025757 0.004752800424773911
94.041351 0.03511664154562894
95.012413 0.0010580809810907098
95.049278 0.008763102904905453
96.056953 0.001328060770073993
97.028084 0.0014134865716634694
98.036293 0.010231613113181694
104.049469 0.003025443614688956
105.03347 0.008429535489175117
105.044571 0.0028006388736640177
105.057243 0.01152199232666484
107.012917 0.001679398465332968
107.049004 0.019704242600712525
108.056747 0.005727382502055358
109.028374 0.05072665456289394
109.064667 0.04105427000548095
111.00766 0.011482597972047136
111.043541 0.0009557412989860235
113.059998 0.00098464476568923
121.028412 0.008082907988489997
122.036087 0.05398910660454919
124.051811 0.2829550904357358
126.031036 0.029460982460948203
135.044128 0.002802137571937517
136.973679 0.0017417014935598794
137.022903 0.004199566662099205
137.059387 0.0011569950671416827
139.075241 0.15821500753631132
141.054199 0.008025957454097014
154.025452 0.005118054604001096
154.985291 0.001236426075637161
155.070053 0.0329711479172376
156.964874 0.0010503733899698546
164.840561 0.0006059023020005481
165.054428 1.0
168.965103 0.0017080878322828172
183.975372 0.09759608796930666
211.970383 0.007789805426144149
335.010773 0.0007799654014798575
350.037903 0.5237507279391614
END IONS

BEGIN IONS
CHARGE=1+
PRECURSORTYPE=M+H
FORMULA=C18H14N2O4
ONTOLOGY=
INCHIKEY=ILEYTZZTYFIPGV-UHFFFAOYSA-N
INCHI=InChI=1S/C18H14N2O4/c21-15(12-5-6-16-17(9-12)24-8-7-23-16)10-20-11-19-14-4-2-1-3-13(14)18(20)22/h1-6,9,11H,7-8,10H2
SMILES=O=C(Cn1cnc2ccccc2c1=O)c1ccc2c(c1)OCCO2
IONMODE=positive
INSTRUMENTTYPE=LC-ESI-Orbitrap
INSTRUMENT=Orbitrap
COMMENT=DB#=CCMSLIB00010115599; origin=GNPS
NUM_PEAKS=52
COMPOUND_NAME="3-(2-(2H,3H-benzo[3,4-e]1,4-dioxin-6-yl)-2-oxoethyl)-3-hydroquinazolin-4-one "
PRECURSOR_MZ=323.103
COLLISION_ENERGY=205060
PARENT_MASS=322.09572354800923
50.015671 0.000974101346398195
51.023411 0.0032751027021145837
51.45512 0.0008106289888467147
53.03904 0.014190046984163918
55.01825 0.0034865125879101552
65.038742 0.0009886441920452789
67.054741 0.0013699899223465904
77.038651 0.00999201220737236
79.05452 0.0011410747593832325
81.033661 0.001001571165953798
90.705612 0.000819246971452394
91.054268 0.0427597365698167
93.069817 0.048359001455900434
95.049072 0.007500068674548889
103.054039 0.019620183961611196
104.049423 0.0016557299081161466
105.033257 0.026179545972358897
105.042343 0.0010589346126728511
105.04483 0.0013990756136407583
120.044029 0.004917097700452929
120.055527 0.0007764263703804247
121.064583 0.11725438614917835
123.043762 0.07589587968865383
129.044479 0.008894835296886807
130.028595 0.015965890024846722
131.048965 0.030308098264392166
132.044098 0.01709565368206
134.036377 0.0014979131016496434
137.059723 0.0012458371104335222
137.200882 0.0009485167105375843
147.055023 0.1475024278472872
149.059464 1.0
159.054871 0.005415324819843767
160.062912 0.004100813160521237
163.03833 0.024283051175196583
163.05188 0.0015999823331356584
164.070206 0.003935724931231192
182.059937 0.0014709819060068955
192.050629 0.0017938869417634439
210.05394 0.00657659797595906
211.129532 0.0009347818007597829
238.048645 0.001986444990609092
238.17897 0.0010058801572566376
239.08075 0.0011181832430868968
249.063736 0.0009245479464155387
266.080444 0.1379227322452053
267.074982 0.011700527258948294
284.097382 0.0009894521279145614
295.106445 0.0012525699093442091
300.147217 0.004054222192059283
308.361267 0.000892230511644241
323.101654 0.7979575919848453
END IONS

BEGIN IONS
CHARGE=1+
PRECURSORTYPE=M+H
FORMULA=C28H40N2O9
ONTOLOGY=
INCHIKEY=UIFFUZWRFRDZJC-UHFFFAOYSA-N
INCHI=InChI=1S/C28H40N2O9/c1-6-7-8-9-11-20-25(39-22(32)14-16(2)3)18(5)38-28(36)23(17(4)37-27(20)35)30-26(34)19-12-10-13-21(24(19)33)29-15-31/h10,12-13,15-18,20,23,25,33H,6-9,11,14H2,1-5H3,(H,29,31)(H,30,34)/t17-,18+,20-,23+,25+/m1/s1
SMILES=CCCCCCC1C(=O)OC(C)C(N=C(O)c2cccc(N=CO)c2O)C(=O)OC(C)C1OC(=O)CC(C)C
IONMODE=positive
INSTRUMENTTYPE=LC-ESI-Orbitrap
INSTRUMENT=Orbitrap
COMMENT=DB#=CCMSLIB00010121692; origin=GNPS
NUM_PEAKS=21
COMPOUND_NAME=Antipiricullin
PRECURSOR_MZ=549.281
COLLISION_ENERGY=205060
PARENT_MASS=548.2737235480092
56.05011 0.02164800043458972
66.746841 0.023332035600141243
73.957588 0.026174976686072306
77.0942 0.024056351800378455
95.036873 0.028854946626949995
118.661713 0.033707865168539325
135.055344 0.03135383751776838
136.039368 1.0
136.050446 0.05231373756213275
146.023605 0.0459578629050512
154.050156 0.1524323443399216
164.034531 0.11624369618556982
191.081329 0.1874983023839057
212.479874 0.02408351365788735
212.936752 0.040045631920614944
219.296951 0.032512743438147924
220.575378 0.02532390515079358
237.086792 0.5902362176208024
265.081909 0.6723736747277024
346.62381 0.025749440918432943
417.745087 0.025821872538456664
END IONS

BEGIN IONS
CHARGE=1+
PRECURSORTYPE=M+H
FORMULA=C17H22N2O3S
ONTOLOGY=
INCHIKEY=NUUXBDNYONRYMI-UHFFFAOYSA-N
INCHI=InChI=1S/C17H22N2O3S/c1-5-19(6-2)17(20)13-7-8-15(16(9-13)21-4)22-10-14-11-23-12(3)18-14/h7-9,11H,5-6,10H2,1-4H3
SMILES=CCN(CC)C(=O)c1ccc(OCc2csc(C)n2)c(OC)c1
IONMODE=positive
INSTRUMENTTYPE=LC-ESI-Orbitrap
INSTRUMENT=Orbitrap
COMMENT=DB#=CCMSLIB00010114834; origin=GNPS
NUM_PEAKS=59
COMPOUND_NAME="N,N-diethyl{3-methoxy-4-[(2-methyl(1,3-thiazol-4-yl))methoxy]phenyl}carboxamid e "
PRECURSOR_MZ=335.142
COLLISION_ENERGY=205060
PARENT_MASS=334.1347235480092
59.967041 0.006420720175646691
61.011051 0.0020148522571389617
70.995407 0.6275474981962893
72.044769 0.09155356062442549
72.0812 0.001739287341856437
72.663513 0.0008653199536382207
74.096718 0.015684428593376584
82.413567 0.0011313726908827504
95.049057 0.0012066053717287115
100.075729 0.12989657379994507
112.021553 1.0
113.029404 0.007174776471022303
121.027893 0.002238532564941513
123.04351 0.002255539186282171
123.054863 0.0011890222547493872
125.723518 0.001159044481538736
130.03215 0.2725631024919889
133.010422 0.0021549406973348896
135.044006 0.0017338106332891066
137.022949 0.0014856292608432344
139.086716 0.0011717273855893961
149.023422 0.02751440734662982
149.059692 0.0009627477165728372
150.013092 0.0041003252300145536
151.03894 0.05104667106917169
151.0522 0.0021454285192968946
153.047668 0.010009982021983508
154.025909 0.020098655698644975
161.005173 0.01044177725534462
163.038132 0.010357897139918663
165.053604 0.0008800205924242131
172.079025 0.001736116615843772
176.070496 0.001858045443421709
177.054733 0.00727681619906625
178.007935 0.01644511458859686
179.016052 0.0009751423728041642
185.110519 0.005052696025091397
189.001144 0.0011209957693867555
189.040085 0.0011630799510094006
191.039795 0.008588920272670907
193.031586 0.03172167251761698
196.573837 0.0009445881039548466
202.032349 0.003820436597442031
203.040573 0.0029254271184124925
204.065155 0.004975157361690769
206.003281 0.003907487438880653
206.063873 0.0020612601560516045
218.026428 0.006987703636275065
219.034531 0.02644644917600037
220.042389 0.0065732032720739455
221.026627 0.01050605651905592
222.112274 0.01697837305436325
224.128937 0.003498463783246864
234.058273 0.005720277974667052
247.02948 0.08331716743479907
262.053009 0.5332005279547058
335.14212 0.140349880968063
335.178772 0.004383384588599741
335.217194 0.003857620566136012
END IONS

BEGIN IONS
CHARGE=1+
PRECURSORTYPE=M+H
FORMULA=C20H22N2O2
ONTOLOGY=
INCHIKEY=NFYYATWFXNPTRM-UHFFFAOYSA-N
INCHI=InChI=1S/C20H22N2O2/c1-3-19-10-22(2)16-11-9-24-15(8-13(11)19)20(17(16)19)12-6-4-5-7-14(12)21-18(20)23/h3-7,11,13,15-17H,1,8-10H2,2H3,(H,21,23)/t11?,13?,15?,16?,17-,19-,20-/m0/s1
SMILES=C=CC12CN(C)C3C4COC(CC41)C1(C(O)=Nc4ccccc41)C32
IONMODE=positive
INSTRUMENTTYPE=LC-ESI-Orbitrap
INSTRUMENT=Orbitrap
COMMENT=DB#=CCMSLIB00010117683; origin=GNPS
NUM_PEAKS=139
COMPOUND_NAME=GELSEMINE
PRECURSOR_MZ=323.175
COLLISION_ENERGY=205060
PARENT_MASS=322.16772354800923
53.17466 0.0005088947405497466
54.034389 0.001324592605295629
56.0499 0.0013000483553599381
58.065559 0.010799788728196657
67.054581 0.0006736918472608139
68.049744 0.004098730361014041
70.065453 0.6383494023793898
72.080887 0.004245517725889179
73.052437 0.0006663604479293738
78.563423 0.0005649958832598972
79.054207 0.00218619140498618
81.033867 0.0039152859994817015
84.080887 0.0006824576508092749
86.054207 0.0010993911432233485
86.060204 0.02740971142655962
88.075798 0.016675586535853253
91.054237 0.01865793316377613
93.069832 0.003951942996138902
94.065063 0.007437385865253343
96.080818 0.0022488270557960927
98.059921 0.0007245335078418879
103.05397 0.002563758470555347
104.291908 0.0005686615829256172
105.069893 0.010300934817166056
106.065407 0.0007473245970678865
107.072647 0.0009441567312924205
108.080742 0.0033032735335527864
109.088463 0.0026375505986087552
115.053963 0.006017644446895328
116.061951 0.0029543945523240376
117.069672 0.03772068707324482
118.658089 0.0007631030434551164
119.050072 0.0006955266670087986
119.085327 0.0012399627564913963
120.044189 0.0007666093648745007
120.08091 0.0033837595479522926
121.06488 0.0010141237814337732
121.088531 0.0013658715710965638
122.096184 0.002047372952427825
128.049423 0.000817291647209239
129.069565 0.0075146843147261356
130.064789 0.00566908422215925
131.04924 0.0006942516410381134
131.085312 0.03873066702027387
131.379395 0.0005265857258930043
132.044235 0.017556948238089426
132.08078 0.001123138501927361
133.088074 0.0007709125775255635
134.059799 0.005817465369497745
134.09613 0.010311772537916881
135.104004 0.00258750582925936
136.111526 0.001025280258677269
141.07016 0.003022130307016691
144.056366 0.0010138050249411017
144.080734 0.0025285358781151675
146.05983 0.03613455476571238
146.095917 0.004748356093078171
147.104233 0.003921979885827799
148.075516 0.0012568568506029756
148.112061 0.006124268493693881
150.091263 0.004927178485466776
158.059845 0.027993513942887124
158.096741 0.0008982557963477519
159.067215 0.0012248218230895092
159.080246 0.014923860230378068
160.039658 0.0011304699012588014
160.075745 0.0012201998539457751
160.111191 0.0043875237433742475
161.119415 0.002068570259190467
162.054703 0.002509410488554889
162.127426 0.006767200339411914
165.069931 0.000654725835946871
165.11441 0.0006591884268442692
168.08165 0.0007882848063761499
170.060135 0.0020813205188973194
172.075104 0.004502913593721262
176.107376 0.0013134361280521332
180.080261 0.004106858651577159
182.059875 0.0025331578472589013
182.096085 0.0009529225348408816
183.06781 0.0037127162483890845
184.075287 0.011266448233467456
190.065598 0.0005178199223445433
190.121933 0.006247627256357678
191.087204 0.0008337076065818115
191.130219 0.004508651210589346
192.079575 0.0008273324767283854
194.09639 0.0010477525914105964
195.067535 0.06224613037586809
196.075424 0.04135148290301738
196.096451 0.0006717793083047861
197.083252 0.002751984179477756
198.090561 0.0022947279907407614
203.072495 0.0028813993155023076
204.080246 0.0008018319573146806
206.095886 0.0013222019316005943
208.07576 0.01922786977267243
208.111984 0.0030533684432984794
209.08345 0.00255961463615062
210.090988 0.033556930387725836
210.127518 0.0013257082530199788
216.079514 0.0007294742334782932
217.087524 0.004496697842114172
218.095886 0.00826392145075005
219.105118 0.0006410193067620046
220.075241 0.0031687582936454936
220.112228 0.0038054743877564356
221.083359 0.0008890118580602838
222.09108 0.0069567010743050075
230.096039 0.0006961641799941412
231.102936 0.000718477134481133
233.082291 0.0034132445235243885
234.090454 0.005564213336070389
234.126968 0.0008400827364352378
235.144852 0.0008286075026990706
236.106506 0.1727947071121905
238.122314 0.02708728923422259
244.111496 0.0012557412028786261
246.0905 0.0024327495520674387
246.127228 0.0008040632527633797
247.10022 0.0009347534147586169
248.106537 0.0057299667122594706
250.121277 0.001051577669322652
251.117645 0.003592704428898336
254.118774 0.0005863525682688749
256.112579 0.002442312246847578
259.098541 0.000892199422986997
262.122101 0.007789771167901477
263.141632 0.0010283084453576463
264.137512 0.0033310053484151905
274.121094 0.006205551399325065
279.149536 0.001134294979170857
289.153778 0.0027003456276650036
292.133636 0.002018684868087407
293.163513 0.00132602700951265
295.179932 0.0007587998308040537
305.165466 0.0012246624448431734
321.679657 0.0008027882267926945
323.174561 1.0
END IONS

BEGIN IONS
CHARGE=1+
PRECURSORTYPE=M+H
FORMULA=C14H19NO4
ONTOLOGY=
INCHIKEY=YKJYKKNCCRKFSL-UHFFFAOYSA-N
INCHI=InChI=1S/C14H19NO4/c1-9(16)19-14-12(15-8-13(14)17)7-10-3-5-11(18-2)6-4-10/h3-6,12-15,17H,7-8H2,1-2H3
SMILES=COc1ccc(CC2NCC(O)C2OC(C)=O)cc1
IONMODE=positive
INSTRUMENTTYPE=LC-ESI-Orbitrap
INSTRUMENT=Orbitrap
COMMENT=DB#=CCMSLIB00010117910; origin=GNPS
NUM_PEAKS=94
COMPOUND_NAME=GNF-Pf-4325
PRECURSOR_MZ=266.139
COLLISION_ENERGY=205060
PARENT_MASS=265.13172354800923
51.023651 0.0004954358137736579
55.018341 0.0008622681365106608
56.049969 0.006920541667059589
57.034111 0.0005606216346199183
60.04483 0.040823651726186544
65.039009 0.00058950142866573
67.04187 0.0007572399875522194
68.049843 0.0040963335627999965
70.065483 0.016456885414407364
70.069862 0.0006282828663843913
72.044601 0.004075705138481559
77.039322 0.0007019558103788086
78.046494 0.003598658091528908
80.049782 0.0048618249200795905
81.033722 0.0008484765613949058
82.37645 0.0005430580047716492
84.044617 0.007292324811633017
91.054314 0.02915102835642145
91.060852 0.0009486717652273135
93.07016 0.0036705628848674593
95.049232 0.0016927095612157333
98.060051 0.020118961176126667
102.054817 0.0009577482719274257
103.05426 0.0021571438001565402
105.069923 0.0026989051611138876
106.041153 0.002085474760238771
107.04895 0.0036017228859990757
109.064621 0.002189559895514084
115.054092 0.0028517912544911025
116.062607 0.0006443140989975764
117.069923 0.0022409541412445897
118.065033 0.004836127797214338
119.049042 0.002744287694614449
119.085487 0.0026634242712861764
120.719711 0.0009671784087587111
121.064743 1.0
121.411217 0.0008304414247050724
126.054947 0.000457361636317343
128.06221 0.0025699480399460598
129.069504 0.0027540714615769076
130.041565 0.0019928236658713918
130.064896 0.0009098903275086521
131.072769 0.0050512527936780365
131.084198 0.0007653734805692031
132.04483 0.0006275756061220448
132.056686 0.002758550776571768
133.064468 0.003259055288892242
133.101074 0.00039842328112180906
134.060287 0.0032777976858444214
135.068573 0.0009258036834114462
135.079773 0.005975170449723226
141.069244 0.0008882010127966957
144.056931 0.03547865017021397
145.064743 0.04334314853408523
145.088303 0.003484907066001528
146.060303 0.0006083617023283007
146.072632 0.002716115160830984
147.067703 0.009451826145997379
147.080353 0.03423670114953368
148.074875 0.0007673773846458512
149.083527 0.003815551238648473
149.096115 0.008581188763048952
150.09137 0.01607248946182209
151.075317 0.0006839206736889752
155.059906 0.0005798355384136624
156.057709 0.0005717020453966787
156.08075 0.0024152937959129785
157.088806 0.0056678658657337115
158.05983 0.0021107003762624596
159.080353 0.04102463151740332
160.076065 0.004795931838970984
160.08905 0.0005737059494733269
161.096008 0.013451382929566307
162.091248 0.00757522891657158
163.075653 0.003153084126250672
163.099442 0.004475542940128061
171.065781 0.0008135850551191498
171.080566 0.015145153381175561
172.075623 0.0006894608790773554
173.08342 0.01818165744084947
174.067657 0.001781117094009034
175.099777 0.0009265109436737927
176.106628 0.0017241826428901483
177.090775 0.004492517186424375
186.091614 0.0034357524777684522
188.106842 0.05357296096866365
189.090897 0.00695048235149892
191.093506 0.0019111351055703819
206.117432 0.16822692209763965
224.127747 0.007979074526371378
266.138336 0.6570914628971266
267.269836 0.0005542562922588006
284.239197 0.0004216449930688494
288.668457 0.0005022726629763397
END IONS

BEGIN IONS
CHARGE=1+
PRECURSORTYPE=M+H
FORMULA=C18H17ClN2O2
ONTOLOGY=
INCHIKEY=XRCGDEXZISQQTC-UHFFFAOYSA-N
INCHI=InChI=1S/C18H17ClN2O2/c1-23-15-6-7-17-16(10-15)13(11-21-17)8-9-20-18(22)12-2-4-14(19)5-3-12/h2-7,10-11,21H,8-9H2,1H3,(H,20,22)
SMILES=COc1ccc2[nH]cc(CCNC(=O)c3ccc(Cl)cc3)c2c1
IONMODE=positive
INSTRUMENTTYPE=LC-ESI-Orbitrap
INSTRUMENT=Orbitrap
COMMENT=DB#=CCMSLIB00010122657; origin=GNPS
NUM_PEAKS=59
COMPOUND_NAME=(4-chlorophenyl)-N-[2-(5-methoxyindol-3-yl)ethyl]carboxamide
PRECURSOR_MZ=329.105
COLLISION_ENERGY=205060
PARENT_MASS=328.09772354800924
50.01561 0.0010670256639842058
51.023441 0.004656076034872518
60.441368 0.0005643608682377546
60.652721 0.0005785984234280553
73.959427 0.0009817980766644889
75.023323 0.000678459053582248
79.017929 0.0015028530478650786
86.999748 0.009687469844067131
91.054253 0.00605550906378583
92.656021 0.0006642214983919473
98.984283 0.007884243930451125
103.053917 0.0013588955453853711
104.292343 0.001070189565137606
114.993759 0.0006327802306800331
115.054092 0.011149785408404271
117.056976 0.0013420873205079327
117.06987 0.011665105808764323
118.065231 0.005971665683220725
119.085571 0.0014492644720793633
129.009735 0.0035208287522681216
129.069916 0.001234910168936502
130.064987 0.012830607896148108
131.072845 0.06301087116436309
132.057129 0.0036125818857167266
133.052338 0.0024761481401798045
134.059998 0.0013737263320419343
138.994476 0.18518194804557916
139.005051 0.00975035237949096
142.065033 0.01351915188465682
143.072906 0.09842342805526069
144.080643 0.025104764676941962
145.064911 0.002429480598167152
146.059998 0.003175370295081241
146.096634 0.005082807202937366
147.068008 0.0013234994012317066
147.0802 0.010574153142307528
148.076309 0.004321493487900451
156.021332 0.0030193504194541954
158.05986 0.006001722744178027
159.067795 0.32031533020845365
160.074997 0.004247932786083897
162.091446 0.003918689322308193
173.083054 0.005662789833120034
174.091263 1.0
182.036423 0.008864262312716826
200.070267 0.0029074274161526646
243.376083 0.0005853217133790306
262.085663 0.008024246556489083
277.111206 0.0028170584894586723
279.044006 0.004858763452512216
281.058716 0.0007779241960922657
282.030273 0.00692123151688495
294.06662 0.006133617873510396
297.053802 0.005412446154357245
300.076752 0.0007510310362883642
311.094208 0.00277276387331107
312.077911 0.05520770220096784
313.894806 0.0008487164843995943
329.104553 0.04716743839488967
END IONS

BEGIN IONS
CHARGE=1+
PRECURSORTYPE=M+H
FORMULA=C22H13Br2FN2O5
ONTOLOGY=
INCHIKEY=XZPHCPOTGWXJFQ-UHFFFAOYSA-N
INCHI=InChI=1S/C22H13Br2FN2O5/c23-15-6-14(10-26-27-21(28)12-4-5-18-19(8-12)31-11-30-18)20(17(24)9-15)32-22(29)13-2-1-3-16(25)7-13/h1-10H,11H2,(H,27,28)/b26-10-
SMILES=O=C(Oc1c(Br)cc(Br)cc1C=NN=C(O)c1ccc2c(c1)OCO2)c1cccc(F)c1
IONMODE=positive
INSTRUMENTTYPE=LC-ESI-Orbitrap
INSTRUMENT=Orbitrap
COMMENT=DB#=CCMSLIB00010125129; origin=GNPS
NUM_PEAKS=40
COMPOUND_NAME="2-[(1Z)-2-(2H-benzo[3,4-d]1,3-dioxolan-5-ylcarbonylamino)-2-azavinyl]-4,6-dibr omophenyl 3-fluorobenzoate "
PRECURSOR_MZ=562.925
COLLISION_ENERGY=205060
PARENT_MASS=561.9177235480092
78.079407 0.000728667305848514
79.018097 0.01786879727282412
79.053688 0.0005261744966442953
82.39579 0.000683668903803132
86.730637 0.0006168530947054437
95.012833 0.0040740598700330245
95.029182 0.012757387876850964
99.024147 0.009231149462021946
104.281471 0.0008328113348247577
104.797768 0.000635091083413231
113.039642 0.03241453073399382
116.026619 0.0007566208586342815
123.024063 1.0
125.022926 0.001196548418024928
132.096069 0.0006327048045168851
136.055969 0.0008043464365612016
139.039047 0.0007175881538297646
141.034637 0.01606289549376798
148.039047 0.02054279322467242
149.0233 0.28646016831788645
196.947052 0.0030687546607009696
220.858383 0.0008663896878661979
222.006592 0.0029893256631511665
240.017426 0.010973814850324918
258.028809 0.003419878555449025
263.035828 0.0007823585810162991
275.865112 0.0078806860551827
285.065826 0.0028909768829231916
323.342072 0.0007452008096303399
357.448334 0.0006674762970064984
367.697144 0.0006967934377330351
422.89621 0.003961734313412166
464.611237 0.0007266219239373602
498.863037 0.008180504953659316
516.871643 0.00796198998615106
521.877197 0.0033053371684244165
539.885437 0.001271034409289443
562.924561 0.019225055928411634
661.783569 0.0008328113348247577
831.445557 0.0007591775860232236
END IONS

BEGIN IONS
CHARGE=1+
PRECURSORTYPE=M+H
FORMULA=C12H10N2O
ONTOLOGY=
INCHIKEY=SATMZMMKDDTOSQ-UHFFFAOYSA-N
INCHI=InChI=1S/C12H10N2O/c1-7-12-10(4-5-13-7)9-3-2-8(15)6-11(9)14-12/h2-6,14-15H,1H3
SMILES=Cc1nccc2c1[nH]c1cc(O)ccc12
IONMODE=positive
INSTRUMENTTYPE=LC-ESI-Orbitrap
INSTRUMENT=Orbitrap
COMMENT=DB#=CCMSLIB00010115832; origin=GNPS
NUM_PEAKS=41
COMPOUND_NAME=harmol///HarmolHCl2H2O///Harmol
PRECURSOR_MZ=199.087
COLLISION_ENERGY=205060
PARENT_MASS=198.07972354800924
50.720711 0.00013842613590587995
52.980331 0.00012199768398256166
55.39959 0.0001430589593482557
55.935009 0.00014102183130976424
61.01112 0.0003436503573319721
61.93454 0.00011384917182859579
72.0448 0.00014075897607899115
74.09668 0.002762542761617511
83.085617 0.000158041707502322
84.959846 0.0006946278042217442
100.075417 0.0006272054375284459
103.054367 0.0008839164272822175
117.070053 0.00015784456607924219
125.002838 0.00013537044384814276
130.065201 0.0019814027295675728
131.04895 0.012319236100642537
144.080215 0.0007320189607992166
145.065109 0.00020666992519534415
154.065353 0.0010003612945146975
154.123474 0.00029860354215823333
156.066895 0.00128187924667268
158.05986 0.007403449002339543
159.00592 0.000671135117971399
169.074493 0.0002544767202922004
170.059189 0.00024090681900353948
170.083893 0.0030328565095637905
171.091385 0.06520485425268878
172.075623 0.0013354359999426975
174.984619 0.0006680465690098151
175.983093 0.0009970427472261872
180.981857 0.0002014128205798823
181.075531 0.003964448304327478
182.060669 0.0006178412199321545
182.084045 0.0012727778843071617
182.117661 0.000315360563120018
183.055206 0.0008918349411092569
184.06279 0.011517593360592297
198.0784 0.0066595029854439975
199.086243 1.0
199.829971 0.0001317233275211661
201.066971 0.0004794150840262745
END IONS

BEGIN IONS
CHARGE=1+
PRECURSORTYPE=M+H
FORMULA=C12H10N2O
ONTOLOGY=
INCHIKEY=SATMZMMKDDTOSQ-UHFFFAOYSA-N
INCHI=InChI=1S/C12H10N2O/c1-7-12-10(4-5-13-7)9-3-2-8(15)6-11(9)14-12/h2-6,14-15H,1H3
SMILES=Cc1nccc2c1[nH]c1cc(O)ccc12
IONMODE=positive
INSTRUMENTTYPE=LC-ESI-Orbitrap
INSTRUMENT=Orbitrap
COMMENT=DB#=CCMSLIB00010115833; origin=GNPS
NUM_PEAKS=30
COMPOUND_NAME=harmol///HarmolHCl2H2O///Harmol
PRECURSOR_MZ=199.087
COLLISION_ENERGY=205060
PARENT_MASS=198.07972354800924
61.320061 0.0001687772926757479
67.362877 0.0002028966914646457
72.044617 0.00036530502969979933
74.096741 0.004506092132385087
83.085571 0.00032618145242186314
95.254288 0.0002378122095586178
100.075638 0.0012491680553261973
105.128197 0.00020374967643436816
105.604317 0.00017122251625561888
125.002663 0.0003241342884945293
130.065109 0.00036968368587770786
131.049088 0.0036262097032840604
145.064713 0.00023405907569183906
154.064621 0.0002663019075473475
154.123215 0.0002526541480317884
157.601593 0.0002167150479741493
158.060257 0.002682694595441739
170.08429 0.0004691985990119932
171.091507 0.0312101513854978
172.076004 0.0007572800561195871
174.984863 0.0008031706474906547
175.984543 0.0011376544869511496
181.075226 0.0022111645041791713
182.061935 0.00021301877977201872
182.117096 0.00031975563231662074
184.06311 0.004115197553593615
198.078247 0.0029957400793298766
198.358505 0.0015258195138395105
199.086456 1.0
199.818268 0.0016373330822145582
END IONS

BEGIN IONS
CHARGE=1+
PRECURSORTYPE=M+H
FORMULA=C12H10N2O
ONTOLOGY=
INCHIKEY=SATMZMMKDDTOSQ-UHFFFAOYSA-N
INCHI=InChI=1S/C12H10N2O/c1-7-12-10(4-5-13-7)9-3-2-8(15)6-11(9)14-12/h2-6,14-15H,1H3
SMILES=Cc1nccc2c1[nH]c1cc(O)ccc12
IONMODE=positive
INSTRUMENTTYPE=LC-ESI-Orbitrap
INSTRUMENT=Orbitrap
COMMENT=DB#=CCMSLIB00010115834; origin=GNPS
NUM_PEAKS=38
COMPOUND_NAME=harmol///HarmolHCl2H2O///Harmol
PRECURSOR_MZ=199.087
COLLISION_ENERGY=205060
PARENT_MASS=198.07972354800924
52.626141 0.0001315444786342277
55.05463 0.00012014616612788655
56.360149 0.00012094139723298012
61.011189 0.0003190864809187941
72.044983 0.0002724329227533048
74.096657 0.002224493343352362
83.085777 0.00015208794884914487
84.959953 0.0006693857827125108
85.472313 0.00012435426405900667
100.07579 0.0006660060505158631
103.054352 0.0007438392949268961
125.001488 0.00013697855785236706
130.065247 0.0015913237105509871
131.048965 0.013072969809780058
144.08049 0.0005379738425957987
145.06517 0.00022375815219570266
154.065186 0.0008533161103947772
156.067047 0.001101527619072107
158.059982 0.007524410447136582
159.005447 0.001153880333490767
169.074966 0.00030324812807568053
170.083939 0.002858358803370693
171.091461 0.06859859006850452
172.076416 0.0014515949784601715
174.984192 0.0002424792177947804
175.983826 0.0007140181284858873
180.983093 0.00017405620812735467
181.075668 0.004441133779541924
182.060379 0.0005790939176550119
182.083664 0.0012325750782656514
183.054626 0.0008857880471860979
184.062866 0.011071472522147683
197.071304 0.0006082855261378216
198.078171 0.005645213076541723
198.363419 0.0009374780690171798
199.086288 1.0
199.813019 0.0009443369372986118
201.065781 0.0005786631674730863
END IONS

BEGIN IONS
CHARGE=1+
PRECURSORTYPE=M+H
FORMULA=C17H19NO2
ONTOLOGY=
INCHIKEY=GZGZWZVAJDFXJK-UHFFFAOYSA-N
INCHI=InChI=1S/C17H19NO2/c1-19-15-10-13-8-9-18-17(12-6-4-3-5-7-12)14(13)11-16(15)20-2/h3-7,10-11,17-18H,8-9H2,1-2H3
SMILES=COc1cc2c(cc1OC)C(c1ccccc1)NCC2
IONMODE=positive
INSTRUMENTTYPE=LC-ESI-Orbitrap
INSTRUMENT=Orbitrap
COMMENT=DB#=CCMSLIB00010116133; origin=GNPS
NUM_PEAKS=131
COMPOUND_NAME="6,7-dimethoxy-1-phenyl-1,2,3,4-tetrahydroisoquinoline "
PRECURSOR_MZ=270.149
COLLISION_ENERGY=205060
PARENT_MASS=269.1417235480092
63.023609 0.0007703656032439891
65.038933 0.02206749766163361
75.044289 0.009449590819968967
79.054497 0.008982053890141775
90.04673 0.001103736205001786
90.824478 0.0005783877679576995
90.830017 0.0007403690664805064
91.054298 1.0
92.393929 0.0005925679489731641
93.069687 0.0005155313886487651
95.048859 0.001235039227289213
103.053741 0.004442078050988659
104.062027 0.0008519016440829104
105.069794 0.040756430848438406
106.065033 0.04597146511266426
107.048828 0.0058644592851552595
108.056686 0.0009646613527347297
108.080551 0.000611247610503151
109.064987 0.001163865626423131
110.036308 0.0019812712532280364
115.054108 0.1367263961342645
117.057297 0.0022921444524132213
117.069656 0.009031548175801521
118.064827 0.007437504942611172
119.049026 0.013965978473394435
120.057037 0.0005204399128464259
121.055367 0.0005098047770848275
121.064796 0.006016759883177124
123.044151 0.0012509919309316106
125.059486 0.004123433021823844
128.06221 0.0010265632967830078
129.069733 0.008825662855288526
130.040833 0.0007745923879697526
130.064835 0.001306894567627192
131.049469 0.0013111213523529556
132.045242 0.0010033841547384985
132.056915 0.004158065386996228
132.080475 0.008856477479418286
133.064621 0.00754794673705854
134.060745 0.001191544248982163
134.072342 0.0036246724241837535
135.043701 0.004324273470244799
135.06842 0.0012042246031594534
135.080338 0.002978656100613838
136.05159 0.006298454632965103
136.07576 0.010911512943505614
136.234528 0.0006295182283499996
137.05957 0.010706445710358895
138.067154 0.006884205187219294
141.069489 0.0012728075940323254
145.064743 0.0033897450021679316
146.059784 0.024089536935281108
147.043976 0.0011120534265589336
147.067825 0.003929819011805001
148.052475 0.0008116790152409676
148.075607 0.0012313578341409674
149.059692 0.002993381673206821
150.067337 0.0368744699475606
151.075089 0.03249524827588088
152.061951 0.0012640813287920394
152.082855 0.0011239156933699472
153.069977 0.0007593214237992523
160.041199 0.000468491365087849
160.052383 0.008134515378679007
160.075302 0.00952294598714512
161.061066 0.007390192223261496
161.083252 0.06676288283080044
162.054138 0.0007876817858301815
162.067398 0.0036708943603783926
162.090561 0.0006569241551202724
163.076004 0.0009976575431745608
164.070343 0.22129345066524136
165.070496 0.006654049941506753
165.090775 0.08074931348835179
166.077133 0.011208478657464093
167.085327 0.00904191061577436
175.075302 0.01647000755367335
176.069885 0.0023660450111668927
177.077988 0.0035773597048340783
178.076889 0.025310805025237994
179.094543 0.19876100668377378
180.094177 0.0006026576931572445
181.064178 0.0034851885282335586
181.100372 0.004062758208824981
182.07251 0.0010099288536687128
183.080139 0.0026587839403996085
188.083084 0.0031999487331917133
189.070068 0.0011312784796664386
190.075333 0.0015472759054181925
191.084717 0.009844181626303145
192.102341 0.013055174538939595
193.063599 0.0020070410052657555
193.101364 0.006392671027981315
194.072281 0.02030247416889141
195.080093 0.030209784870292248
196.087982 0.004746815594926767
197.095612 0.002202154842122773
198.102097 0.0006131564810244635
205.064972 0.0025720666795742675
206.072205 0.014209086769073025
207.080124 0.11533600211611932
208.08786 0.01263931346108222
209.060486 0.00111041725182638
209.095764 0.03330733633480498
210.103683 0.016486232953104505
211.075394 0.00641939521527969
211.111526 0.0007683203848282971
212.082779 0.0009476178659372964
219.080063 0.0009600255243258279
220.089096 0.0010494697430387583
221.095581 0.027999858198189845
222.103516 0.2655227987314192
223.074966 0.029292299889012816
223.102798 0.0008979872323831703
223.111282 0.0021454341180609147
224.083817 0.004274370140901914
225.090836 0.004834896334695903
226.098389 0.009053363838902236
227.10582 0.008904335590345478
233.006836 0.0006059300426223518
237.090652 0.01157525449334486
238.098358 0.06334723172870041
238.120865 0.0027393655459778733
239.105957 0.011727282395577965
241.121826 0.0535466814285987
244.393311 0.0006083843047211822
251.10643 0.006613418268981672
253.121796 0.304360269314361
269.006256 0.0006780580787490899
270.148224 0.8592572039409996
271.297394 0.000830767720454093
END IONS

BEGIN IONS
CHARGE=1+
PRECURSORTYPE=M+H
FORMULA=C20H21NO2
ONTOLOGY=
INCHIKEY=UGORMPYEOUOURD-UHFFFAOYSA-N
INCHI=InChI=1S/C20H21NO2/c1-2-3-11-17-19(22)16-12-7-8-13-18(16)21(20(17)23)14-15-9-5-4-6-10-15/h4-10,12-13,22H,2-3,11,14H2,1H3
SMILES=CCCCc1c(O)c2ccccc2n(Cc2ccccc2)c1=O
IONMODE=positive
INSTRUMENTTYPE=LC-ESI-Orbitrap
INSTRUMENT=Orbitrap
COMMENT=DB#=CCMSLIB00010116377; origin=GNPS
NUM_PEAKS=22
COMPOUND_NAME=3-butyl-4-hydroxy-1-benzylhydroquinolin-2-one
PRECURSOR_MZ=308.165
COLLISION_ENERGY=205060
PARENT_MASS=307.15772354800924
60.549702 0.0004944104004061347
60.748539 0.0005428386817122105
61.089069 0.0005017759184754999
65.038979 0.024471381371610458
89.038803 0.0008660007870056057
90.829803 0.0005903462732596155
91.054367 1.0
92.395042 0.0006150207587919887
104.305496 0.0008265952653345023
109.458076 0.0007168490461009618
132.044342 0.0023578864719555137
132.080246 0.0008641594074882645
146.060242 0.0007768780183662876
150.055496 0.0012368546217981402
174.055023 0.00875244512182659
188.070023 0.004379537044044509
210.09227 0.0011223208158195124
212.107239 0.0006870186979200329
216.101364 0.0006295676569789849
230.117294 0.012886894552112975
243.103424 0.0006851773184026916
308.163971 0.36004825150887243
END IONS

BEGIN IONS
CHARGE=1+
PRECURSORTYPE=M+H
FORMULA=C16H16N4O3
ONTOLOGY=
INCHIKEY=GCFBQCLCBDJAGR-UHFFFAOYSA-N
INCHI=InChI=1S/C16H16N4O3/c1-3-10-14-13(8-4-5-11(21)12(6-8)22-2)9(7-17)15(18)23-16(14)20-19-10/h4-6,13,21H,3,18H2,1-2H3,(H,19,20)
SMILES=CCc1[nH]nc2c1C(c1ccc(O)c(OC)c1)C(C#N)=C(N)O2
IONMODE=positive
INSTRUMENTTYPE=LC-ESI-Orbitrap
INSTRUMENT=Orbitrap
COMMENT=DB#=CCMSLIB00010119289; origin=GNPS
NUM_PEAKS=198
COMPOUND_NAME="6-amino-3-ethyl-4-(4-hydroxy-3-methoxyphenyl)-4H-pyrano[3,2-d]pyrazole-5-carbo nitrile "
PRECURSOR_MZ=313.13
COLLISION_ENERGY=205060
PARENT_MASS=312.1227235480092
52.22757 0.00043336743083925185
56.050201 0.00283020089473582
59.94252 0.00044526379168581954
59.949429 0.0004664668293851443
67.054443 0.0004883982157077283
67.831299 0.0005681928537670191
68.013657 0.0008092762480658298
71.060753 0.014819790365080701
71.064949 0.0006878038832311488
78.034363 0.0011899597951559962
79.02916 0.003855392045785613
80.013512 0.0008209298260379777
80.049797 0.0009262166659113421
85.040161 0.0011746644740675519
89.038849 0.0005132429965233492
91.029648 0.0007599913245586208
91.054283 0.004377537081037686
92.049713 0.0005006992146783289
93.033852 0.0005304805806071514
95.04937 0.0008425375018613353
95.06044 0.0004709987763743129
96.044609 0.0010390297748917188
97.039917 0.005945671666914845
98.059929 0.007435225529104811
103.05481 0.001050278714739834
104.049553 0.0009610964722029795
104.268173 0.0007574016405648101
105.045242 0.0010239772366776945
106.028313 0.0006309117629921209
106.039948 0.005648505428625072
106.066742 0.0005303996529823448
107.02404 0.0007350656161181932
108.057243 0.0007401640564810079
109.065071 0.0007882350656161182
109.075592 0.0005258677059931762
110.034851 0.005153713930557624
111.055679 0.002799691180183738
113.070953 0.00855809632329615
114.235458 0.0004943059323186088
115.054314 0.0007888824866145709
116.049347 0.00565400850711192
117.033249 0.0007586964825617154
117.045288 0.0007731825274020938
117.070061 0.0007388692144841025
118.04007 0.004136777397238102
118.065498 0.0007710784091571226
119.048492 0.0006562421095565814
119.060661 0.0011821098155497575
120.080833 0.000697838908707165
121.052521 0.0010238963090528877
122.036423 0.0005508743420584104
123.044312 0.0124151878492027
123.055557 0.009046494539003878
123.062851 0.0005678691432677927
124.05217 0.0007198512226545556
125.060478 0.0013543238011381662
125.070793 0.025640461222719298
130.065445 0.002578030415838507
130.077057 0.0006004829760648456
131.049713 0.0021759010481745963
131.060349 0.0011388135362782356
131.072601 0.0005334749027249949
131.085831 0.0007912293877339618
132.034775 0.0005876964113454056
132.044052 0.004382716449025307
132.080933 0.0010446947086281797
133.028458 0.0006994574612032967
133.052444 0.0046832007199321506
133.063812 0.0005801701422383933
134.034958 0.00428010022077056
134.060272 0.0044740837374319395
134.071594 0.0037505098440362814
135.032013 0.0008993486944755566
136.050812 0.002766834564512265
137.059494 0.0043142516784389386
138.065979 0.006458429097689355
142.028763 0.001001560284606271
142.065414 0.0023755494985724366
143.072983 0.0005671407946445335
144.019531 0.0021415068076317987
144.044266 0.029375756673291942
144.080536 0.0010918755138904176
145.028275 0.007803850860098796
145.039597 0.0008854291430088244
145.064209 0.0015679727306275452
146.060349 0.0024753332599589534
146.072266 0.0005914190820865084
147.043808 0.0008013453408347846
147.055893 0.0017987783165759198
147.068222 0.0034853909451699155
147.08046 0.0016067370629098984
147.091644 0.0017440712422066697
148.063049 0.0018374617212334665
148.075058 0.008566108158152001
148.09938 0.0005455331188211758
149.023376 0.0007848361053742417
149.046936 0.0015545387449096525
149.060104 0.003907266653286633
150.054779 0.010744922600819634
152.071259 0.004917324338497595
158.047256 0.0021249975721712557
158.060379 0.004035132300481034
158.072693 0.0009634433733223703
159.055344 0.0048620507707546985
159.068161 0.0034014689982454892
159.091751 0.0071272149890909565
160.039474 0.0007615289494299458
160.075668 0.004672841983956908
161.046341 0.045752432684401684
161.070267 0.02147519730154928
161.082489 0.001875821415391787
162.054321 0.0020516771440964917
162.06723 0.0037099651040081835
162.079697 0.0008888281032507009
164.068573 0.0010440472876297269
164.082047 0.008222975028972089
170.02356 0.010259437779604945
170.059631 0.005677801228805055
171.054855 0.0020849383978919973
172.063202 0.0009100311409500256
172.076218 0.0017363831178500444
174.053879 0.011684896962948096
175.050201 0.0032655105885704295
175.072952 0.005931023766824853
175.089188 0.001970668591665102
176.070755 0.02249075806524709
176.094589 0.0030518616590810505
177.041489 0.0016781961556141113
177.05481 0.024369007309383073
178.050491 0.0022145035252073364
182.060303 0.0006111654225393146
185.072266 0.0019264011808959012
186.041443 0.014549653953476327
186.077652 0.006518315540046226
187.049301 0.005487216672385552
187.063538 0.010128901520791926
187.086838 0.022193510899332507
188.034103 0.0007402449841058145
188.070602 0.007113295437624224
189.07724 0.15233565217954279
190.08287 0.0013349820988093927
190.098923 0.005765041208346551
191.080063 0.003800684971416363
192.065552 0.01532405039525052
198.055115 0.003662136877747493
199.050247 0.0024390776840456044
200.072052 0.010526175230967442
201.065491 0.018407554755630943
202.049713 0.005875345560957924
202.086334 0.003033329233000343
203.044952 0.005960319567004836
203.079544 0.005561346376708382
203.11763 0.001863925054545219
204.053558 0.012235852232631314
204.088196 0.030838199781171704
205.073761 0.0022136133213344644
205.097061 0.0023405078370311865
211.04953 0.0006903126396001528
213.066193 0.00210500844884403
214.072067 0.005445377090360548
214.087875 0.005704264562116808
215.057861 0.02467127198803566
215.081604 0.08596237512867493
216.065231 0.008042911063777443
217.060669 0.018330592584439885
217.096008 0.005084601738972802
218.068237 0.004258492544947203
219.076172 0.03931302157854188
219.111755 0.009684123294854945
220.060471 0.0006671673389054701
226.03804 0.0009517088677254158
229.096725 0.0019882298862481306
230.08078 0.09505257058507435
231.0495 0.0006457215183317256
231.076447 0.038446691354987406
231.111771 0.00643366524449854
232.083847 0.0833128046925074
233.09314 0.0034514013427511506
237.065292 0.0006509008863193468
241.059921 0.0019690500391689706
241.096649 0.0005236826601233985
243.100021 0.004122453207647337
247.107361 1.0
248.115097 0.018416375866734863
252.075577 0.00071240588117235
253.084549 0.000935766125638519
254.091599 0.0018983192950880168
258.087585 0.004074139415637807
264.077362 0.0005064450760395963
268.108643 0.0008028020380813031
271.095581 0.011398575026382406
273.110138 0.002715040884636052
281.074585 0.0009691083070588312
281.104095 0.002856583300422766
286.118317 0.025022174169197005
295.119476 0.0008799260645219767
296.101776 0.0040503466939446715
313.128845 0.43893525142594475
END IONS

BEGIN IONS
CHARGE=1+
PRECURSORTYPE=M+H
FORMULA=C17H21ClN2O5
ONTOLOGY=
INCHIKEY=MCMRXZPGLBSFTP-UHFFFAOYSA-N
INCHI=InChI=1S/C17H21ClN2O5/c1-4-5-6-25-16(22)13-9(2)19-17(23)20-14(13)10-7-11(18)15(21)12(8-10)24-3/h7-8,14,21H,4-6H2,1-3H3,(H2,19,20,23)
SMILES=CCCCOC(=O)C1=C(C)N=C(O)NC1c1cc(Cl)c(O)c(OC)c1
IONMODE=positive
INSTRUMENTTYPE=LC-ESI-Orbitrap
INSTRUMENT=Orbitrap
COMMENT=DB#=CCMSLIB00010123225; origin=GNPS
NUM_PEAKS=112
COMPOUND_NAME="butyl 6-(3-chloro-4-hydroxy-5-methoxyphenyl)-4-methyl-2-oxo-1,3,6-trihydropyri midine-5-carboxylate "
PRECURSOR_MZ=369.121
COLLISION_ENERGY=205060
PARENT_MASS=368.1137235480092
52.8465 0.002251065381271431
53.00272 0.0029204805618659193
57.070358 0.021528303641411926
60.04483 0.005449792385346966
61.039989 0.019224098356058022
67.018333 0.0032267730645635074
68.013359 0.0024776480278453097
84.044487 0.011329132328693925
91.054543 0.010940915807202524
94.028847 0.010427230067738616
96.008209 0.005226161955666559
102.046341 0.0044615377802576395
103.054153 0.004216503778099569
104.290398 0.0026104977880514924
105.033699 0.0021359289224260726
113.038818 0.0024555064011442793
115.054176 0.044556333464706985
116.061958 0.020114191749439448
117.069763 0.010348996320061643
119.049438 0.0037987650876734613
122.999428 0.017421031888370776
126.99424 0.0324566725268172
130.041 0.004054869903182047
131.048843 0.009189513135151013
133.028656 0.004630552197408839
137.015793 0.032217542958446074
137.034576 0.058647264697242775
140.002365 0.0031824898111614463
143.04863 0.02130688737440162
143.996887 0.00348066371740199
144.057251 0.03004544937907498
145.06485 0.04066309743644246
146.070908 0.002154380278010265
147.044098 0.0028267476754982234
149.015167 0.047701920564700045
150.994568 0.04425520734157297
155.045074 0.08030251366507395
155.059616 0.003122707419068664
156.654587 0.002300515014237066
157.052948 0.0022222812665600917
157.981262 0.0024761719193985743
159.020813 0.0143876290303296
159.043854 0.027802502594260595
160.075378 0.0036496781345531893
164.026306 0.014502027434951591
165.010239 0.042701603201384
167.997391 0.023054599775336294
169.004852 0.010946082186766097
171.020905 0.004230526808343555
171.04454 0.0043272119116047215
172.051376 0.0046423610649827226
173.059464 0.00791046516605482
174.054092 0.015694723059913766
174.068329 0.06766554925257248
175.038925 0.0037360304786872084
176.046997 0.005511050885886484
177.009964 0.11053247659999085
177.027512 0.004195838259845274
178.989288 0.11194585043773995
179.006882 0.004599553920027396
179.025681 0.017511074503621632
183.020767 0.04302265678854894
184.016357 0.00281198659103087
185.404465 0.0029241708329827577
186.031845 0.04261156058613314
187.015564 0.017761274885343275
188.071045 0.004334592453838398
189.05806 0.003355194499429484
189.077744 0.038251136234476873
190.005875 0.004180339121154553
191.999619 0.02889260868217466
192.017563 0.02669911153032591
193.005035 0.04182848505514003
194.01239 0.024296006979040736
195.031723 0.0023034672311305366
195.992615 0.026521978516717667
197.036209 0.002379486816137408
203.033936 0.008830080728370953
206.013138 0.014296848360855376
207.020615 0.022478179426886135
208.028336 0.0039921352941957935
209.021133 0.0163995648432299
209.036865 0.031283904365885955
210.032013 0.008751846980693978
211.015503 0.4108260745700465
211.107468 0.07601810889842454
212.010864 0.003947852040793733
217.005371 0.004211337398535996
217.072754 0.0028245335128281204
218.000092 0.005455696819133908
218.056732 0.016138293648157744
219.99205 0.1853608420903467
220.013779 0.01059476837644308
220.999924 0.061890274954720374
224.047211 0.22318833520061052
225.03038 0.003071781677656294
235.015396 1.0
237.018768 0.010090677341882954
238.002167 0.036544754870050794
245.99649 0.0032489146912645377
252.01149 0.0036710817070308524
252.041931 0.17984019649955643
253.025909 0.949060235557386
278.021118 0.005076336948322919
280.072266 0.0023972001174982324
295.048157 0.020877339816401632
296.029602 0.003158134021790313
309.088379 0.09505769369864066
326.114868 0.08948464625799128
342.241943 0.0025898322697971974
342.488312 0.0024134373104123213
369.120697 0.1875941941702573
END IONS

BEGIN IONS
CHARGE=1+
PRECURSORTYPE=M+H
FORMULA=C22H18N4O2
ONTOLOGY=
INCHIKEY=BXYRCDZUINXBPI-UHFFFAOYSA-N
INCHI=InChI=1S/C22H18N4O2/c27-22(17-9-6-12-23-15-17)28-14-13-24-21-18-10-4-5-11-19(18)25-20(26-21)16-7-2-1-3-8-16/h1-12,15H,13-14H2,(H,24,25,26)
SMILES=O=C(OCCN=c1[nH]c(-c2ccccc2)nc2ccccc12)c1cccnc1
IONMODE=positive
INSTRUMENTTYPE=LC-ESI-Orbitrap
INSTRUMENT=Orbitrap
COMMENT=DB#=CCMSLIB00010116129; origin=GNPS
NUM_PEAKS=47
COMPOUND_NAME=2-[(2-phenylquinazolin-4-yl)amino]ethyl pyridine-3-carboxylate
PRECURSOR_MZ=371.15
COLLISION_ENERGY=205060
PARENT_MASS=370.1427235480092
50.015671 0.001051819423385145
51.023571 0.0009115835067347273
53.002769 0.0006121933377829792
67.474617 0.000417104257446317
78.034073 0.08009112431768871
80.04969 0.04656773344725708
91.054337 0.0007847605899637929
96.044327 0.0269126837731129
96.051231 0.0009728428793186356
102.034393 0.0005555384278442667
103.053963 0.0029782865553294254
104.049347 0.0008151900822276951
104.286987 0.0006177987705684349
105.044777 0.0073705435307900415
106.028633 0.3961471458137227
116.049431 0.0011194850048667168
118.064453 0.0005145987491076351
119.060318 0.003059665427732558
124.039177 0.4563544987802178
129.044937 0.005175215819171942
140.034149 0.0008459198655336752
143.060562 0.0071684476594715595
145.075394 0.0010204890579950088
146.070892 0.006352256607103605
150.054794 0.24141758192039725
161.070358 0.006653648716335872
170.07077 0.0031395428449253015
180.080093 0.0045508106456777905
188.080963 0.007281357091292881
205.075714 0.3786048438146251
206.083878 0.0037286137724682764
207.091629 0.023119607523611883
219.089996 0.0009855552000999368
220.098785 0.011409858434795004
221.106934 0.20994247624797954
222.102295 0.004042117620397689
223.086472 0.000666245725357016
231.091599 0.002619038371990133
233.093079 0.004419183072233609
234.101791 0.0016781264401457892
246.101456 0.001750396484272557
247.11084 0.002598818775156882
248.117722 1.0
249.131256 0.0010390070055898177
303.213623 0.0005779601589860894
371.149384 0.9238455911469396
373.004547 0.0006382185614297377
END IONS

BEGIN IONS
CHARGE=1+
PRECURSORTYPE=M+H
FORMULA=C30H30O8
ONTOLOGY=
INCHIKEY=JGABKNAYCZRLJE-UHFFFAOYSA-N
INCHI=InChI=1S/C30H30O8/c1-33-25-15-19(16-26(34-2)29(25)37-5)7-13-23(31)21-9-11-22(12-10-21)24(32)14-8-20-17-27(35-3)30(38-6)28(18-20)36-4/h7-18H,1-6H3/b13-7+,14-8+
SMILES=COc1cc(C=CC(=O)c2ccc(C(=O)C=Cc3cc(OC)c(OC)c(OC)c3)cc2)cc(OC)c1OC
IONMODE=positive
INSTRUMENTTYPE=LC-ESI-Orbitrap
INSTRUMENT=Orbitrap
COMMENT=DB#=CCMSLIB00010124967; origin=GNPS
NUM_PEAKS=251
COMPOUND_NAME="(2E)-1-{4-[(2E)-3-(3,4,5-trimethoxyphenyl)prop-2-enoyl]phenyl}-3-(3,4,5-trimet hoxyphenyl)prop-2-en-1-one "
PRECURSOR_MZ=519.201
COLLISION_ENERGY=205060
PARENT_MASS=518.1937235480093
51.023499 0.0027002179930718166
53.03907 0.02521849820509309
55.018051 0.0025413816405381803
59.476871 0.0018555229027427615
65.038857 0.009929236440539078
75.044258 0.002374687659257297
77.038818 0.012605320288172921
78.046677 0.003030799659652423
79.054413 0.008070345982618925
81.033783 0.0023370832931097576
91.054283 0.05590871231425127
92.362007 0.0027237908793135575
93.033592 0.0027967545748237084
94.041801 0.0018162347590065264
95.049149 0.013176682149937027
99.044296 0.02725699160580746
102.046463 0.007625828699203236
103.053886 0.009821474674862548
104.061447 0.0018695543826485596
105.033447 0.14008243775074256
105.069649 0.004843666863481558
106.041412 0.0025026547559981772
107.04924 0.01789967828622872
111.043739 0.0038171237935733576
115.054153 0.008625431327692305
117.069527 0.0030807517281170654
118.040932 0.00956329544459586
119.049049 0.05845233899157438
121.028137 0.0028107860547295065
121.064743 0.008281940699598363
123.044113 0.007521995747900329
124.051773 0.0029561521865535765
125.059174 0.0020884454691790125
129.032852 0.003281121261171864
130.04126 0.021806042292002954
130.050766 0.002408924470227445
131.049149 0.015755668156622746
132.056732 0.008471085048728523
133.028458 0.07679765707961125
133.03923 0.004689320584517777
133.064621 0.01592797472986595
134.035629 0.004435631427820945
135.043777 0.03172910488138348
136.015381 0.01059545110646638
136.051407 0.0024588765386920866
137.059708 0.0036807378088889986
138.067551 0.0083335765456517
139.038773 0.014653355095223235
141.069672 0.003968102517359747
143.049149 0.013966373839035352
145.027832 0.004572017412505304
145.06485 0.0035061861988608684
146.036728 0.0034259261337997024
147.04393 0.10623121184840614
147.057205 0.0035589445633066696
148.051895 0.016955640318166612
149.022903 0.0026603685901393495
149.059418 0.01598410064948914
150.067322 0.006993289585049851
151.039276 0.004140970349799182
151.075363 0.007051660541457972
152.046585 0.015599638100070269
152.061096 0.006741845465137946
153.054596 0.036287652073179216
153.068878 0.004954234925139248
154.062317 0.05725292808922674
155.048874 0.007615726033671061
155.084824 0.0027479250247515307
157.027847 0.03536325817698523
157.039703 0.004276795075287308
159.044159 0.011359324872538037
160.051392 0.014658967687185555
161.059052 0.029331966854276907
162.032135 0.0024818881657375958
162.06749 0.06934525747204368
163.038834 0.11495317975785033
163.074478 0.01686471632837704
164.046494 0.003772784317071035
165.055038 0.004671360290238355
165.069351 0.03096691489290052
166.061554 0.008143870937325309
166.077515 0.00735361798903075
167.070023 0.015395339752641847
167.084991 0.00650443282513184
168.0578 0.0022674871527769984
168.060379 0.0027265971752947174
168.077652 0.03249690746182876
169.068588 0.0026772063660263075
169.085754 0.03890761000118987
174.031509 0.004435631427820945
174.565018 0.0022248314538633714
175.038818 0.10651071892812963
176.046692 0.015735462825558398
177.054382 0.03068740781317702
177.070038 0.006941092479800281
178.062317 0.08213354825818821
178.077789 0.014788057302318898
179.069717 0.004285213963230787
179.085815 0.008168566341959513
181.048981 0.0023314707011474383
181.064896 0.010763828865335959
181.085754 0.0161732449986193
182.07251 0.0025481167508929633
183.04364 0.01866074575631922
183.080704 0.010357477207264041
188.046356 0.008696149986417528
189.054108 0.008875752929211745
189.071274 0.0023045302597283056
190.062225 0.16557314666600811
191.033539 0.09247755524474269
191.067169 0.016412341416214105
191.086487 0.0028775758990811063
192.041977 0.009700803947672683
193.064865 0.015051287865351674
193.085266 0.07812615759709222
193.104568 0.004254344707438031
194.071747 0.015638364984610274
195.06311 0.004468745720398628
195.067581 0.004339094846069052
195.081345 0.025164617322254824
196.051041 0.003260915930107515
197.060303 0.004334604772499197
198.067917 0.0020929355427488677
205.048798 0.00852833348674418
205.065689 0.010061693610849813
206.056519 0.05997054511738175
207.043381 0.003379902879708684
207.062393 0.02294483720115754
207.083572 0.0041858710854977355
208.088333 0.004479409645127035
209.059982 0.010047662130944015
209.095688 0.0033501561423083916
210.066544 0.003003297959037059
211.075211 0.020043688415834694
211.621979 0.00270134051146428
219.080002 0.00443114135425109
221.05954 0.014777393377590492
221.08046 0.2570960000179603
222.068222 0.00811524671831748
223.074829 0.029573308308656638
225.053513 0.002999930403859667
225.091141 0.01005776479647619
228.041763 0.0023219292948114954
233.059021 0.007800941568427599
234.066254 0.002681135180399931
235.040131 0.0024650503898506378
235.074646 0.013059378977924554
236.045853 0.0025941400049839815
236.085007 0.007564651446813956
237.055313 0.003100395799985183
237.090836 0.014676366722268745
238.06485 0.002404434396657589
238.098358 0.012931973140379905
239.06958 0.023731161335078476
243.064499 0.002607610225693548
247.075226 0.008070907241815157
249.055054 0.0033035716290211415
249.090942 0.0033378084399912893
250.062836 0.007892426817413404
251.069473 0.029930830416656378
253.050217 0.0027900194644689255
253.085068 0.011000680246145833
253.451096 0.0019672134827929157
254.057632 0.012788852045340762
254.092148 0.004417671133541523
256.071655 0.0035376167138498563
261.054749 0.0023836678063970077
261.089661 0.0039624899253974276
263.071655 0.003589252559903194
264.077576 0.013172753335563404
265.056305 0.002720984583332398
265.084839 0.015083840898733126
266.059967 0.0035291978259063776
266.093689 0.010850262781555675
267.066254 0.020214872470685433
267.09552 0.0028242562754390733
268.073303 0.013351795019161389
269.115417 0.002140642574428582
270.086945 0.0026755225884376116
271.060516 0.0044086909864018125
275.069763 0.004627020813736033
277.085632 0.0089066221850045
278.058502 0.0020805878404317655
278.09314 0.003406282061931585
279.065491 0.00807202976020762
281.080719 0.019172614143282737
282.052307 0.025780879919717486
282.08905 0.010923787736262059
283.093933 0.0031868297162049
284.068115 0.004741517689767347
286.082977 0.0919802795968812
290.057098 0.004055097692775696
293.080109 0.010431002161970423
295.060455 0.008501393045325047
295.096802 0.0029123739692474863
296.066345 0.013801363635343166
297.112427 0.004404762172028189
298.04715 0.003579711153567251
298.082581 0.07223967114701174
303.064331 0.0024886232760923787
305.080536 0.02431038082558983
307.100189 0.002421272172544547
308.105591 0.002423517209329475
309.075195 0.01158102225504965
309.11261 0.017800896667691902
314.077606 0.19959050529042918
319.097198 0.004586048892411102
320.102539 0.0034472539832565157
321.077087 0.0040741805054475815
325.106659 0.07940582856450103
328.094391 0.0024268847645068665
329.104523 0.0108137809338006
335.09314 0.0035078699764495643
336.099396 0.007930031183560943
337.110687 0.002705830585034136
341.075378 0.0020878842099827806
341.11853 0.003937794520763223
343.117035 0.19216672990186945
351.122253 0.13149629456678646
353.117645 0.0027782330213480546
355.13324 0.003485419608600287
357.10968 0.0037402312836895832
359.127777 0.002814153609906898
365.132812 0.0032721411140321536
369.109039 0.007838545934575138
381.110138 0.0023836678063970077
383.126953 0.010004445172834157
385.106384 0.008264541664515172
387.121338 0.004337972327676589
393.110321 0.002406118174246285
397.103455 0.008402611426788227
399.126801 0.002906761377285167
403.117584 0.0033187256273194037
411.122986 0.00868548606168912
415.115845 0.013443841527343426
427.114441 0.0037009431399533483
429.132324 0.014319405873465236
439.113922 0.007204884302029289
441.13559 0.00386426956605684
443.102264 0.013492109818219371
455.14743 0.004305980553491369
457.126129 0.02297121638338044
458.141144 0.004355371362759779
471.138184 0.002407240692638749
473.158234 0.011070276386478593
477.189484 0.01323561436554138
487.172607 0.011554081813630516
488.181519 0.004673044067827052
501.190826 0.0224273562222317
504.175232 0.00952849737442948
519.200806 1.0
END IONS

BEGIN IONS
CHARGE=1+
PRECURSORTYPE=M+H
FORMULA=C17H19N3O3
ONTOLOGY=
INCHIKEY=NCXYJHRCPJFINE-UHFFFAOYSA-N
INCHI=InChI=1S/C17H19N3O3/c1-11-3-5-13(6-4-11)18-10-17(23)20-19-9-15-12(2)7-14(21)8-16(15)22/h3-9,18,21-22H,10H2,1-2H3,(H,20,23)/b19-9-
SMILES=Cc1ccc(NCC(O)=NN=Cc2c(C)cc(O)cc2O)cc1
IONMODE=positive
INSTRUMENTTYPE=LC-ESI-Orbitrap
INSTRUMENT=Orbitrap
COMMENT=DB#=CCMSLIB00010116001; origin=GNPS
NUM_PEAKS=77
COMPOUND_NAME="N-[(1Z)-2-(2,4-dihydroxy-6-methylphenyl)-1-azavinyl]-2-[(4-methylphenyl)amino] acetamide "
PRECURSOR_MZ=314.15
COLLISION_ENERGY=205060
PARENT_MASS=313.1427235480092
55.01833 0.001933414130112931
65.038918 0.00562672888245595
66.404152 0.00032851409524263324
67.05452 0.002891560903228375
68.049843 0.003227655497960949
68.997437 0.0021033307683398323
77.039131 0.0006849780593529388
79.054337 0.00214967752967714
80.049698 0.15338555420825498
81.033638 0.00043716792126511625
82.065323 0.0034297892590200983
83.01284 0.0024757163597802006
91.054237 0.03523292399667448
92.049622 0.000700551602522749
92.062111 0.011715919801822022
92.405128 0.0003662876726329839
93.063393 0.0008554103778172514
93.069901 0.022868639432355696
94.028587 0.0045568342018935575
94.065163 0.016276724741543642
95.049248 0.006304384282437654
96.044243 0.0008941379636468122
103.054008 0.002512819552861917
104.049347 0.023470915273633857
104.738487 0.00041541910725231027
105.057167 0.001951914158630048
106.064934 0.0025983322282305847
107.048843 0.00034658868756388636
107.07299 0.003108494687101218
108.044121 0.004259222244877774
108.080818 0.005216840445749871
109.064613 0.0023598559024399
118.028061 0.0005035746438377089
118.065033 0.014588529456325544
119.060181 0.0008141043908006358
119.072594 0.0005631743872764771
119.739693 0.0004113065573589581
120.080673 1.0
120.424156 0.0008289559816380707
121.064713 0.0005667454729205478
122.023483 0.003241256564222662
122.059837 0.04366971052083601
123.043793 0.009577857969492563
124.050507 0.0004871244442643002
125.059502 0.008366151223642164
126.054733 0.0005298743359456663
132.044205 0.07449445803605657
133.052063 0.006599224458177353
134.059631 0.0005266900104796538
136.039642 0.00048472653116033934
137.05954 0.00975103628522109
145.075562 0.0025078819145887073
147.031265 0.004024742440927024
147.043625 0.0006988369657333576
148.075638 0.0048401489243271225
149.046814 0.00379008214889318
149.059006 0.0011597132859134415
149.071335 0.0007201603435502996
150.054764 0.15997682429877028
151.062607 0.024960689695502164
151.074112 0.0003704775745619477
152.070419 0.011415445819488609
162.054321 0.00612421849949221
163.062103 0.0005792249346658924
163.08577 0.0019020865556902168
164.070251 0.014307767351067164
165.101425 0.0013776526462492358
167.081284 0.42282221274058157
177.054123 0.002071229673561002
178.097702 0.005544903320784771
179.081238 0.051806048846675994
190.049423 0.0019642518083101044
195.076569 0.0007436366863584322
205.599609 0.00043756757344910974
207.075974 0.01566799000529191
296.139038 0.003902732496755598
314.149048 0.24422430398896197
END IONS

BEGIN IONS
CHARGE=1+
PRECURSORTYPE=M+H
FORMULA=C25H23BrN2O3S
ONTOLOGY=
INCHIKEY=IQQYFMUEUBWVGS-UHFFFAOYSA-N
INCHI=InChI=1S/C25H23BrN2O3S/c1-2-31-21-13-15(10-16(26)25(21)30)24-23-19(27-17-6-3-4-7-18(17)28-24)11-14(12-20(23)29)22-8-5-9-32-22/h3-10,13-14,24,27-28,30H,2,11-12H2,1H3
SMILES=CCOc1cc(C2Nc3ccccc3NC3=C2C(=O)CC(c2cccs2)C3)cc(Br)c1O
IONMODE=positive
INSTRUMENTTYPE=LC-ESI-Orbitrap
INSTRUMENT=Orbitrap
COMMENT=DB#=CCMSLIB00010123017; origin=GNPS
NUM_PEAKS=84
COMPOUND_NAME="11-(3-bromo-5-ethoxy-4-hydroxyphenyl)-3-(2-thienyl)-2,3,4-trihydro-5H,10H,11H- benzo[b]benzo[2,1-f]1,4-diazepin-1-one "
PRECURSOR_MZ=511.069
COLLISION_ENERGY=205060
PARENT_MASS=510.06172354800924
85.010811 0.007825376791150048
92.049622 0.0029685376444379043
97.010567 0.004855060833859788
109.010551 0.007403560982571201
110.9897 0.0004726755561562301
116.049019 0.0005638140898394762
119.060364 0.0037793593894696314
130.065002 0.021946069995283025
131.060013 0.0008053978908320415
132.068268 0.0009122744932586383
133.075821 0.028655733302864906
135.025574 0.0008724402853658635
137.005432 0.03667903631448218
140.049606 0.0009363706324080623
142.052139 0.000600091672027539
143.061111 0.0011922698518620936
156.067734 0.005097711622563767
157.075851 0.2592039471432071
158.083679 0.0020220306287714127
159.077835 0.0005149994020423033
159.091019 0.0034634421112485847
162.030823 0.003991423197113087
163.020279 0.001516900863059685
166.064713 0.008270577413737377
167.072678 0.0024602958312345538
167.110168 0.000373534614637382
169.075577 0.0008147340333069105
170.059418 0.0006627772000730887
170.083252 0.00297680679920136
171.055145 0.0006341463631501567
177.065033 0.0004947266355254448
182.083771 0.0062985173761171695
183.091446 0.12669145338397375
185.070618 0.40487373311880953
187.08577 0.0005566119227874343
190.062515 0.002023186532125444
193.075851 0.0014711093071115176
194.059708 0.003655499899303035
194.08017 0.0005935119144738217
195.091049 0.0005018398869348689
196.062347 0.0016608552884579048
197.070419 0.005516682130578846
198.078476 0.0173900324675469
200.953033 0.0008305610176928791
211.086243 0.2039016183980691
219.090897 0.0009216106357335074
220.099625 0.0006332572067239787
222.941208 0.00048352326455560184
227.063263 0.006840458217872667
227.828171 0.0005130432579047117
229.030991 0.00043026279462753906
232.099121 0.000641170698916963
233.106873 0.002710504449561046
236.40741 0.000445467369515183
237.100021 0.0005268251825104709
244.099915 0.0009084511206260728
247.085144 0.0006167188971970678
248.095001 0.000632279134655183
250.068451 0.0004969495265908898
251.062714 0.0021225942205721454
253.07869 0.01719041684986994
261.101837 0.009395538124137796
262.110199 0.0022335609425591612
265.097687 0.0007692092242865964
267.094055 0.003057986780911412
268.979095 0.0007190608018501567
269.072479 0.0021257951837063862
271.039978 0.000642059855343141
277.078552 0.0143890406135535
280.06662 0.0006326347972256542
293.092529 0.000793572110363874
294.081238 0.0006098723927154971
295.089325 1.0
296.403534 0.0006162743189839788
303.072357 0.000406611233691204
328.99115 0.0007392446527243975
330.864655 0.00044911291086251285
353.994446 0.0004344418298305757
355.005035 0.0006924750247074342
371.00235 0.0021878583022536115
378.996857 0.001541085917851727
403.115234 0.0005002394053677485
431.141785 0.0005914668546936122
511.067474 0.05281864809989495
END IONS

BEGIN IONS
CHARGE=1+
PRECURSORTYPE=M+H
FORMULA=C8H10N4O2
ONTOLOGY=
INCHIKEY=RYYVLZVUVIJVGH-UHFFFAOYSA-N
INCHI=InChI=1S/C8H10N4O2/c1-10-4-9-6-5(10)7(13)12(3)8(14)11(6)2/h4H,1-3H3
SMILES=Cn1c(=O)c2c(ncn2C)n(C)c1=O
IONMODE=positive
INSTRUMENTTYPE=LC-ESI-Orbitrap
INSTRUMENT=Orbitrap
COMMENT=DB#=CCMSLIB00010115611; origin=GNPS
NUM_PEAKS=20
COMPOUND_NAME=caffeine
PRECURSOR_MZ=195.088
COLLISION_ENERGY=205060
PARENT_MASS=194.08072354800925
56.05024 0.01016170207091428
69.04541 0.05388973270095614
83.061073 0.0345471088062603
84.265167 0.0017755380338484062
84.92524 0.0017094478264163156
87.716293 0.0015587747041951243
91.85791 0.0014520319173875489
109.040077 0.012314784371838507
110.071617 0.17750743294215415
110.53743 0.0016883553262358989
111.055656 0.008345080026553747
112.087044 0.0018042506164422552
115.198189 0.001565571145347693
123.043053 0.008419955740768382
138.066254 0.8682614154437555
180.065582 0.0031534030167458035
181.072006 0.0018172299700530761
185.01004 0.0018170870935078243
195.087677 1.0
210.675507 0.002922889920737696
END IONS

BEGIN IONS
CHARGE=1+
PRECURSORTYPE=M+H
FORMULA=C8H10N4O2
ONTOLOGY=
INCHIKEY=RYYVLZVUVIJVGH-UHFFFAOYSA-N
INCHI=InChI=1S/C8H10N4O2/c1-10-4-9-6-5(10)7(13)12(3)8(14)11(6)2/h4H,1-3H3
SMILES=Cn1c(=O)c2c(ncn2C)n(C)c1=O
IONMODE=positive
INSTRUMENTTYPE=LC-ESI-Orbitrap
INSTRUMENT=Orbitrap
COMMENT=DB#=CCMSLIB00010115613; origin=GNPS
NUM_PEAKS=43
COMPOUND_NAME=caffeine
PRECURSOR_MZ=195.088
COLLISION_ENERGY=205060
PARENT_MASS=194.08072354800925
56.049858 0.009243514498099726
57.04512 0.0006075793237514988
61.011131 0.0013247485520523395
67.029457 0.0005654982329523233
69.044998 0.056208518788580304
70.029121 0.0006720439734864058
78.997337 0.0011068222222540567
81.044907 0.004325219860269291
82.052673 0.0011591102159279256
83.060471 0.04183415537699643
86.003754 0.0006693579464141181
95.82708 0.0004895732010423218
97.007698 0.002532923529167389
97.03952 0.005052416922973339
106.991798 0.0010153182333247858
108.055573 0.0013453414262732126
109.039513 0.014813618372138664
110.071129 0.1823894753580295
111.055161 0.00946609660815664
116.005081 0.0007549526757843557
116.985527 0.0006786695069313824
122.071373 0.0008853145230260566
123.042503 0.011050315375391981
125.002647 0.003153574851337355
131.631027 0.0006938903270076799
134.995636 0.0006315744989306031
135.066391 0.001329046195368
136.04953 0.0005470541803892805
136.194458 0.0005588726995073469
138.066025 0.8658714474605942
139.000259 0.0010450435995914373
141.016052 0.0020834616657378984
151.098129 0.0024847541103376943
156.076752 0.002291002024190002
157.010818 0.01413244190660648
166.995483 0.005020363666577371
174.037659 0.0011019873735239386
180.063919 0.003540541818218283
181.071564 0.0035613137609106418
185.005539 0.01084957961885634
194.769516 0.0006568231534101084
195.087311 1.0
212.999893 0.0007945268079827292
END IONS

BEGIN IONS
CHARGE=1+
PRECURSORTYPE=M+H
FORMULA=C20H20N2O6
ONTOLOGY=
INCHIKEY=NSSFSSGVOUOLBK-UHFFFAOYSA-N
INCHI=InChI=1S/C20H20N2O6/c1-3-27-19(25)13-9-5-7-11-15(13)21-17(23)18(24)22-16-12-8-6-10-14(16)20(26)28-4-2/h5-12H,3-4H2,1-2H3,(H,21,23)(H,22,24)
SMILES=CCOC(=O)c1ccccc1NC(=O)C(=O)Nc1ccccc1C(=O)OCC
IONMODE=positive
INSTRUMENTTYPE=LC-ESI-Orbitrap
INSTRUMENT=Orbitrap
COMMENT=DB#=CCMSLIB00010124799; origin=GNPS
NUM_PEAKS=21
COMPOUND_NAME=ethyl 2-({N-[2-(ethoxycarbonyl)phenyl]carbamoyl}carbonylamino)benzoate
PRECURSOR_MZ=385.139
COLLISION_ENERGY=205060
PARENT_MASS=384.13172354800923
62.005692 0.0025802424791996656
62.783611 0.0027451142031101874
90.033943 0.04714978007289686
92.371323 0.0032420846851833316
97.407204 0.003953388408340154
120.044434 0.02341414010563567
121.028152 0.00297122399590176
136.192612 0.003574183443345954
146.023514 1.0
148.038712 0.029599185062621814
150.963638 0.0028723009615554468
157.550339 0.0032161762714259636
164.033859 0.03530963498577981
185.376755 0.003312743995430698
192.065308 0.0530557207544059
231.161484 0.0030395279958075477
265.03537 0.005450188130413534
265.06012 0.3089083725394367
293.055054 0.36581973632300724
339.096954 0.05516843413080216
385.290863 0.01980698231750761
END IONS

BEGIN IONS
CHARGE=1+
PRECURSORTYPE=M+H
FORMULA=C28H27ClN2O2
ONTOLOGY=
INCHIKEY=SHUGUJZESGPCLW-UHFFFAOYSA-N
INCHI=InChI=1S/C28H27ClN2O2/c1-17(2)33-26-14-8-4-10-20(26)28-27-24(30-22-12-6-7-13-23(22)31-28)15-18(16-25(27)32)19-9-3-5-11-21(19)29/h3-14,17-18,28,30-31H,15-16H2,1-2H3
SMILES=CC(C)Oc1ccccc1C1Nc2ccccc2NC2=C1C(=O)CC(c1ccccc1Cl)C2
IONMODE=positive
INSTRUMENTTYPE=LC-ESI-Orbitrap
INSTRUMENT=Orbitrap
COMMENT=DB#=CCMSLIB00010115975; origin=GNPS
NUM_PEAKS=97
COMPOUND_NAME="3-(2-chlorophenyl)-11-[2-(methylethoxy)phenyl]-2,3,4-trihydro-5H,10H,11H-benzo [b]benzo[2,1-f]1,4-diazepin-1-one "
PRECURSOR_MZ=459.183
COLLISION_ENERGY=205060
PARENT_MASS=458.1757235480092
58.977009 0.0005029799652801104
65.038811 0.0007858251048271372
72.611366 0.0005822688678034869
91.054253 0.055002423357184395
92.049927 0.003788567924207882
93.057449 0.005607167024812237
96.560204 0.0006095154179433382
99.64003 0.00048813131626209626
102.046272 0.0037440219771538398
102.698807 0.0005159545129657539
103.054108 0.0012873634536977316
107.04908 0.007009427306348389
107.060066 0.0008140807864536496
108.068314 0.0006837586630334089
109.075249 0.0005704476132454562
115.053993 0.0022470474975124907
116.049011 0.0010245567822429764
117.056976 0.0009680454189899516
117.069061 0.0010287374698305725
119.060432 0.006066177689602111
119.085258 0.0045167283726543815
125.015053 0.008541288903100023
128.06189 0.002334409451929157
129.069717 0.0029695856419618785
130.064911 0.02828509060126649
131.049057 0.0043555556580705005
131.059937 0.0031640596956055782
131.07193 0.0006210483492194656
132.067932 0.006000295819687232
132.080582 0.003258197247146969
133.07579 0.05570477887190056
137.014999 0.03124674735297603
140.049484 0.001256368700893139
142.052017 0.0020658363148363377
143.048325 0.003741859552539566
143.060211 0.0006648734880687501
145.064713 0.006073097448367788
145.076111 0.0011283531637281238
147.079926 0.007670696753393349
149.014877 0.0025125932401453264
149.107071 0.0929402891132877
151.030396 0.001077896589395066
156.067673 0.006741719139101279
157.075821 0.2845087648836082
157.992218 0.000657809567662122
158.083542 0.005176267880007923
159.055466 0.0012237881700380788
159.091415 0.0040278762481875275
160.038696 0.0006299863709584645
165.009918 0.07447736359497614
166.06485 0.0009896696651326908
170.083221 0.002549642781869886
171.043655 0.020313384341566213
175.085861 0.0007793378309843155
177.065079 0.000841615659875404
178.040817 0.0007875550445185564
182.084427 0.0011333988211614295
183.091354 0.020188540360502133
184.061905 0.0006020190126138552
185.070618 0.30763820271952286
186.06723 0.0007212406896808232
198.07901 0.004463388565502292
208.088409 0.0008234512931155032
208.339737 0.00276530859673347
211.085876 0.021169992812100583
219.091232 0.004183714982056201
237.101151 0.0008701596647838195
243.056366 0.0008119183618393756
245.106766 0.005540996831615455
255.067429 0.0052451771443827845
259.122559 0.00450750202763348
261.102173 0.0007481989165387713
267.056885 0.01323202037638298
269.107086 0.0019672297524254475
270.089661 0.0021141304645551215
270.117279 0.0010610296774037295
281.083832 0.008506690109271641
285.099579 0.002035850693518406
286.109161 0.0008150899179403107
287.117035 0.030833868413290666
288.125183 0.003028691914752032
291.056458 0.0007926007019518622
295.100464 0.002107210705789445
297.078278 0.005238545708899011
305.083649 0.005407214828812376
309.067871 0.006615433541627683
311.082794 0.027022955434735287
321.591095 0.0005841429691358577
322.083649 0.0009563683260728726
323.093658 1.0
324.096222 0.0009240761184997156
324.608185 0.0008012504004089577
325.108124 0.0009380597976720201
365.142059 0.0010934660466178382
399.12381 0.0020434912604888407
417.135986 0.017689642476247207
459.182098 0.0694393467286408
END IONS

BEGIN IONS
CHARGE=1+
PRECURSORTYPE=M+H
FORMULA=C21H20O7
ONTOLOGY=
INCHIKEY=RHUOMQNPQOKXIP-UHFFFAOYSA-N
INCHI=InChI=1S/C21H20O7/c1-4-26-17(22)12-27-21-18(23)13-8-5-6-10-15(13)28-20(21)14-9-7-11-16(24-2)19(14)25-3/h5-11H,4,12H2,1-3H3
SMILES=CCOC(=O)COc1c(-c2cccc(OC)c2OC)oc2ccccc2c1=O
IONMODE=positive
INSTRUMENTTYPE=LC-ESI-Orbitrap
INSTRUMENT=Orbitrap
COMMENT=DB#=CCMSLIB00010116082; origin=GNPS
NUM_PEAKS=175
COMPOUND_NAME="ethyl 2-[2-(2,3-dimethoxyphenyl)-4-oxochromen-3-yloxy]acetate "
PRECURSOR_MZ=385.128
COLLISION_ENERGY=205060
PARENT_MASS=384.1207235480092
53.039249 0.0012098305598814934
55.018478 0.0024190588544504214
63.35574 0.0006173219453795951
65.039177 0.00121982816407008
71.970291 0.0005516750263099601
75.044319 0.004867869615341577
78.046768 0.0008475077478421135
79.05455 0.010596376362339194
79.059334 0.0007733086613340489
79.113617 0.000580342855188076
81.033836 0.0006711644643229472
89.039001 0.0006786325541987589
91.054337 0.012465326080292325
92.025887 0.0044782039581117246
93.033813 0.0009308612671011729
94.042023 0.0009135160260992877
95.049362 0.004529516962742302
103.054131 0.0033237818069862535
105.033562 0.01142135938749136
105.069946 0.0034486916328123297
107.049187 0.038843583146159315
109.028526 0.002458928818142255
118.041313 0.011314276614917221
118.64621 0.000723320640391116
118.655472 0.0007524702815192841
119.049431 0.00833270195853066
120.021027 0.0035097613355064674
120.056824 0.0008985798463476644
121.028412 0.053478871147624986
121.064697 0.002498557875709062
122.035767 0.0010732367869916474
131.049286 0.003840043632917365
132.057556 0.0009975922637334258
133.028412 0.004889189807406394
133.064896 0.001307517993579611
134.03656 0.00570405477530746
135.044128 0.033265642727303056
135.080246 0.0007872812165855676
137.023956 0.0007639133224580278
137.060196 0.0013148656303929094
138.031296 0.007292589763730113
141.070038 0.001148760857187356
145.028503 0.002523130300461733
146.036102 0.004993502159542731
147.044189 0.01586318652072413
148.051849 0.01840028937643738
149.023651 0.0006850165665119528
149.059845 0.004726698626076233
149.241623 0.0006833302236367695
150.067902 0.0007633110571454623
151.03923 0.003326672680486568
151.075668 0.0011721287513148956
152.061752 0.007792831332346983
153.069901 0.0042147731103955935
155.085587 0.0007800540328347822
159.043945 0.001053000672489448
160.052643 0.0011533380735628534
161.0233 0.02114613738948582
161.060165 0.003850643502418517
163.026245 0.0009314635324137384
163.039093 0.05400609420224479
163.075272 0.06260861102080477
165.018265 0.0006939300931379216
165.054779 0.0036792387944623874
165.070038 0.019620478899695
166.077713 0.007968933709741123
167.085541 0.008910515299405961
168.056854 0.0021023877531035034
169.06488 0.004325469474845124
173.023346 0.0008640098174064071
174.030914 0.0013295609040195066
175.038879 0.00973477560618305
176.046631 0.018964611974311218
176.060287 0.0012751161197635892
177.054932 0.003035417175329912
177.07016 0.00328897087191997
178.062668 0.0008260671027147832
178.078369 0.004692971768572567
179.085678 0.003942428736053493
180.05687 0.006991095748259845
181.064865 0.026992206325496215
182.072098 0.005550356667540755
183.080704 0.00971032363449289
184.051498 0.0011309338039354184
189.054062 0.0010484234561139506
190.062943 0.0006323785781937317
191.070297 0.0628287992190787
192.057205 0.004833420039462832
193.064606 0.01060095357871469
194.072601 0.02314866955376597
195.080612 0.028278283673948496
196.053787 0.0019702507435266415
196.088226 0.03592151230265422
197.05954 0.019657578442949034
197.095505 0.003096005065773997
198.067459 0.0027135665922949307
199.112335 0.0009291749242259897
205.064651 0.01304795754366815
206.072403 0.0029348388681314803
207.046005 0.000983499255419394
207.080475 0.0026122655667214206
208.051926 0.03008375462795723
208.085907 0.005369917979896143
209.059677 0.04055871430328323
210.067368 0.023040984515879267
211.075226 0.020604459967364448
212.047211 0.0026552673100385944
212.083099 0.017498457297401862
213.055069 0.0007057344932642045
213.091141 0.0007865584982104891
217.048386 0.002044690736159732
220.053116 0.0026362357261615257
221.05954 0.0549704414207246
222.067398 0.1367921590838051
223.038147 0.002399184099135761
223.075134 0.027564117466308376
224.046143 0.002010361613343501
224.082993 0.04818748856448738
225.054382 0.035091108889688964
225.090393 0.006009764647965686
226.061417 0.004641297404754451
227.068359 0.0011014228036197108
227.106461 0.01793967686538732
233.059357 0.0033367907377376675
234.067627 0.0008260671027147832
235.038864 0.0011523744490627486
235.075912 0.002808363152492734
236.04657 0.05566906918330053
237.054428 0.1398598576798885
238.062073 0.019232379132277818
238.09552 0.000778608596084625
239.070099 0.05856945847555327
240.045944 0.0011518926368126964
240.077927 0.03137537281728511
241.086151 0.013489899830028684
248.046463 0.01507036446326296
249.054321 0.06200610480211429
250.062347 0.052585229876840354
251.069977 0.18088255717997218
252.04335 0.011320660627230415
252.077682 0.11372431353498541
253.049438 0.06167232936589051
253.084259 0.005637323778675206
254.057083 0.005899911454953746
254.090347 0.000802217396337191
255.066315 0.003228503434538398
255.100967 0.021752498106176726
261.054718 0.000752229375394258
263.032623 0.0012428346990100807
264.041534 0.022481359587443444
265.049469 0.05443779797829171
265.084106 0.0048734104562171785
266.057129 0.03021745752734676
267.06488 0.11750232384070854
268.07254 0.033683735307286
269.081055 0.004460858717109839
277.048737 0.02649377155281704
278.056976 0.035822740791393484
279.064941 0.889283760795154
280.072662 0.39385898969512007
281.044373 0.035363091904843526
281.080811 0.010149856859603162
282.05191 0.01392690354082618
282.088684 0.014145284943162416
283.029785 0.0010513143296142647
283.059906 0.06838626261730774
283.096466 0.020981478053030425
295.059631 0.11837006770305285
296.067535 0.03177178384601569
309.076508 0.0012746343075135367
310.083679 0.0013067952752045323
311.090912 1.0
339.085815 0.6302322250728108
357.095642 0.002407856719636704
385.127594 0.46874224959825894
END IONS

BEGIN IONS
CHARGE=1+
PRECURSORTYPE=M+H
FORMULA=C30H22FN3O3
ONTOLOGY=
INCHIKEY=LCFQUJGFDLRXLW-UHFFFAOYSA-N
INCHI=InChI=1S/C30H22FN3O3/c31-22-17-15-20(16-18-22)19-34-25-14-8-7-13-24(25)26(29(36)32-23-11-5-2-6-12-23)27(30(34)37)33-28(35)21-9-3-1-4-10-21/h1-18H,19H2,(H,32,36)(H,33,35)
SMILES=O=c1c(N=C(O)c2ccccc2)c(C(O)=Nc2ccccc2)c2ccccc2n1Cc1ccc(F)cc1
IONMODE=positive
INSTRUMENTTYPE=LC-ESI-Orbitrap
INSTRUMENT=Orbitrap
COMMENT=DB#=CCMSLIB00010123852; origin=GNPS
NUM_PEAKS=19
COMPOUND_NAME={1-[(4-fluorophenyl)methyl]-2-oxo-3-(phenylcarbonylamino)(4-hydroquinolyl)}-N- benzamide
PRECURSOR_MZ=492.172
COLLISION_ENERGY=205060
PARENT_MASS=491.16472354800925
51.98167 0.008997779477897408
53.039082 0.08084193241402474
71.851227 0.008822376891642253
73.944702 0.011274281129294099
95.049362 0.016849844190255828
105.033493 1.0
109.04483 0.5998619171129481
109.681648 0.009050027056781922
125.617241 0.010027803175906402
132.254227 0.009695657852997705
176.393585 0.013838144464555616
206.950516 0.011236961430090873
338.722198 0.010382340318337034
355.125 0.010091246664551884
399.113464 0.703610680897912
420.985352 0.009747905431882219
428.312683 0.009751637401802541
446.500305 0.009587430725308354
458.349304 0.011106342482879589
END IONS

BEGIN IONS
CHARGE=1+
PRECURSORTYPE=M+H
FORMULA=C24H29ClO4
ONTOLOGY=
INCHIKEY=UWFYSQMTEOIJJG-UHFFFAOYSA-N
INCHI=InChI=1S/C24H29ClO4/c1-12(26)24(29-13(2)27)8-6-16-14-10-20(25)19-11-21(28)15-9-18(15)23(19,4)17(14)5-7-22(16,24)3/h10-11,14-18H,5-9H2,1-4H3/t14-,15+,16-,17-,18-,22-,23-,24-/m0/s1
SMILES=CC(=O)OC1(C(C)=O)CCC2C3C=C(Cl)C4=CC(=O)C5CC5C4(C)C3CCC21C
IONMODE=positive
INSTRUMENTTYPE=LC-ESI-Orbitrap
INSTRUMENT=Orbitrap
COMMENT=DB#=CCMSLIB00010118504; origin=GNPS
NUM_PEAKS=232
COMPOUND_NAME=CYPROTERONE ACETATE
PRECURSOR_MZ=417.183
COLLISION_ENERGY=205060
PARENT_MASS=416.1757235480092
53.039028 0.006522699791673748
55.018261 0.003322536627057161
55.054668 0.005081412345151437
59.04961 0.005474755617281852
66.739151 0.0036401248986291258
67.054703 0.02943567380673734
67.465302 0.002813618418177315
69.033943 0.00523195112831246
69.070358 0.004942528177460945
79.054558 0.03473658140991711
81.070023 0.032679541779368416
85.028297 0.005686481131663162
85.064903 0.0037333618223933723
87.543251 0.002701928353251395
91.048271 0.00461328529041845
91.054329 0.09378274825544974
92.371017 0.003207932908263608
93.070129 0.055704205859357925
95.049118 0.007277336143390619
95.085487 0.026877485710955825
97.064903 0.007134567103876616
99.079781 0.0034721041922623065
103.053886 0.006991798064362614
105.069893 0.13912211608968228
107.048782 0.013153204776449908
107.085632 0.0371743384791698
109.064529 0.01726922647345904
109.100853 0.014427442734561277
111.080276 0.004016957465509622
114.491058 0.003423543294468428
115.053993 0.012845328684436719
117.069847 0.046626231625770294
119.085487 0.0800681795005026
121.06498 0.0341091746104202
121.101059 0.02906369732963623
123.079964 0.005712704016471857
125.015083 0.005900149081956227
126.842812 0.003612930795864554
127.031273 0.005080441127195559
128.061829 0.01855220539317331
129.069885 0.04537627411655587
130.077637 0.014718808121324548
131.048904 0.004141273363861951
131.085663 0.07191771841477805
133.064789 0.00725694056631719
133.101242 0.14530197594293123
135.080368 0.012276194962292463
135.116699 0.013318311828949094
139.030472 0.0038518504130104357
141.046432 0.004092712466068072
141.070419 0.02416001787041039
142.077637 0.033282668129968385
143.085617 0.06295629033589573
144.093857 0.00679366960136359
145.065155 0.04831226599717375
145.10112 0.08334895375545703
146.071182 0.009539302762629475
147.080658 0.023815235496073853
147.11673 0.15157215906607682
149.38913 0.0034905573334239803
153.046677 0.004104367081538603
153.069534 0.006935467422921715
154.077423 0.015167510816939983
155.085495 0.052502100258829586
156.093597 0.015707508000407912
157.042007 0.004975549587960783
157.06459 0.014732405172706834
157.101212 0.06356718643014272
157.961777 0.0032817454729103033
158.072693 0.015724989923613708
159.080307 0.038749654003603216
159.116928 0.03162868395110889
161.096649 0.004526846892345345
163.030746 0.0039897633627450505
165.046524 0.006984999538671471
165.069916 0.017731526220456765
166.077408 0.013198852020376153
167.025574 0.004510336187095427
167.08522 0.03086433541983324
168.09259 0.015153913765557697
169.041794 0.0036274990652027175
169.063858 0.006075939531970067
169.101151 0.03521053577238536
170.072205 0.004286956057243586
170.108719 0.004686126637109267
171.080383 0.02971052848825069
171.117142 0.025384723712772003
173.09584 0.006875251909657306
175.031128 0.004222855672155667
175.111923 0.031039154651891204
177.046112 0.020894783102750003
177.126205 0.005438820552914382
178.077911 0.011850801497618088
179.026031 0.01141083976360555
179.061661 0.00451713471278657
179.085709 0.02478159736217203
180.093536 0.00718895530940576
181.041458 0.039129400224351345
181.078201 0.014752800749780262
181.100876 0.039669397407819273
182.109085 0.02106474624502858
183.057343 0.00554759696397267
183.079361 0.012016879768073151
183.116913 0.05538370393391833
184.088028 0.014804275301441773
184.124496 0.004030554516891908
185.09584 0.04840161804911449
185.132751 0.006221622225351702
186.103409 0.0032768893831309153
187.074844 0.005397058180811647
187.109772 0.003956741952245213
189.046463 0.013032773749921088
189.091232 0.0029398767524413992
191.026154 0.013393095611551666
191.062241 0.011169006492592035
191.084961 0.007241401079023149
192.092926 0.012359719706497933
193.041214 0.011644903290972043
193.101151 0.04966225895584358
194.073135 0.0037644407969814548
194.108276 0.017219694357709286
195.058762 0.004687097855065145
195.081009 0.01836670276360069
195.116882 0.04406610109407703
196.124695 0.013432915547742647
196.733398 0.0030020347016175633
197.095535 0.006449858444982931
197.132492 0.023558833955722173
199.112 0.017136169613503813
201.127686 0.021717404711378303
203.063446 0.010354154627610756
203.083633 0.007993123776872387
204.092651 0.013377556124257626
205.041794 0.03818634758919423
205.0784 0.007741578326300097
205.100784 0.030555488109864175
206.107986 0.014986864277146756
207.057358 0.006105076070646394
207.079971 0.005487381450708261
207.116852 0.036222544882409786
208.088684 0.005133858114768826
208.124069 0.004848320035740821
209.095688 0.01947777610512463
209.132004 0.02785841584639217
210.14003 0.00501634074210764
211.113312 0.004817241061152739
215.062576 0.005406770360370423
215.084579 0.00487648535646127
216.092346 0.00605068786511725
217.076859 0.014659563826016015
217.100876 0.017229406537268063
218.108871 0.017209010960194632
219.057404 0.03127516061516945
219.116486 0.03771822053446124
220.12529 0.012856012081951371
221.073532 0.004278215095640688
221.095825 0.020343131303811546
221.132324 0.034107232174508444
222.103058 0.01610764979822947
222.140045 0.005718531324207122
223.111984 0.02091614989777931
223.147568 0.006128385301587456
227.105759 0.004667673495947593
229.07547 0.0058156531197948785
229.100449 0.004607457982683184
230.108322 0.005498064848222914
231.094437 0.004901737023314087
231.114853 0.0237958111369563
232.124298 0.012946335351847985
233.095566 0.004348142788463873
233.107407 0.0033672126530275293
233.131943 0.03977137529318642
234.103394 0.004701666124403308
234.141037 0.013757302345005754
235.020554 0.0029660996372500937
235.087173 0.011511846431016817
235.110489 0.024748575951672194
235.148361 0.07845692891170172
236.119827 0.013758273562961632
236.155121 0.004490911827977876
237.12738 0.027937084500818252
237.16304 0.013498958368742322
241.077621 0.003404118935350877
243.117294 0.005597129079722426
244.124222 0.010270629883405285
245.132431 0.020370325406576118
246.139252 0.018895045331598092
247.111542 0.012730724965643165
247.148071 0.012837558940789697
248.118851 0.01605520402861208
249.128357 0.027728272640304575
249.162888 0.022698334846814647
250.135788 0.021157011950836947
250.167999 0.004236452723537953
251.142548 0.013928236705240207
251.178879 0.015068446585440471
253.157852 0.003291457652469079
255.09079 0.00434522913459624
255.117264 0.0044219553531105685
259.148651 0.006654785433673098
260.155426 0.01234515143715977
261.132843 0.0056320929261340184
261.1633 0.04811219509826298
262.134521 0.014590607351148708
263.112579 0.005787487799074429
263.142944 0.12345831289728884
264.150146 0.016748653649108665
265.156708 0.004851233689608454
271.088074 0.0034381115638065915
271.121826 0.0037896924638342712
273.12796 0.003619729321555697
277.158752 0.08255546868550506
278.16626 0.032991302743205116
279.138977 0.005765149786089246
279.174011 0.1614581866389546
281.108826 0.005392202091032259
288.150848 0.004371452019404935
293.152313 0.0035060968207180215
293.18927 0.006465397932276972
297.141327 0.013041514711523986
299.118408 0.03273392998489756
303.173584 0.02859654149285912
307.16507 0.004099510991759215
313.134766 0.08163086919150961
314.143921 0.052689545324313955
315.151276 0.07205660258246854
321.184296 0.11400739096864423
339.149994 0.022476897152874563
347.854095 0.0038683611182603545
357.108673 0.004482170866374978
357.161285 0.3289155865913649
417.182373 1.0
END IONS

BEGIN IONS
CHARGE=1+
PRECURSORTYPE=M+H
FORMULA=C16H16ClN3O
ONTOLOGY=
INCHIKEY=DQWVBJJWBWNKEX-UHFFFAOYSA-N
INCHI=InChI=1S/C16H16ClN3O/c17-14-5-6-15(18-9-14)19-16(21)11-20-8-7-12-3-1-2-4-13(12)10-20/h1-6,9H,7-8,10-11H2,(H,18,19,21)
SMILES=OC(CN1CCc2ccccc2C1)=Nc1ccc(Cl)cn1
IONMODE=positive
INSTRUMENTTYPE=LC-ESI-Orbitrap
INSTRUMENT=Orbitrap
COMMENT=DB#=CCMSLIB00010115435; origin=GNPS
NUM_PEAKS=58
COMPOUND_NAME="N-(5-chloro(2-pyridyl))-2-(2-1,2,3,4-tetrahydroisoquinolyl)acetamide "
PRECURSOR_MZ=302.105
COLLISION_ENERGY=205060
PARENT_MASS=301.09772354800924
50.825001 0.00019135524973963694
52.615841 0.00019459528050348723
54.523869 0.00019909263663838394
54.70298 0.00019333795513244085
70.029167 0.00039697630657383864
79.054443 0.00029305352879004294
80.502022 0.0002202253746055867
84.067169 0.0002176140065272596
91.054268 0.011824081223992708
91.874718 0.00021684026783738488
92.375427 0.0002942624954929721
93.069527 0.0002553821263267684
96.044441 0.00020929631561110654
101.002548 0.00029194127942334806
103.054176 0.0009983163446108327
105.045242 0.0007185614495530112
105.069778 0.018651406347442716
111.994667 0.0003085766612556541
114.01091 0.0017381072494672808
115.053932 0.005352385745876359
116.062462 0.0004118707763539266
117.069733 0.053994145506203066
118.064957 0.001551636225207478
118.077454 0.0012697051900843839
119.085403 0.044154510587066494
128.061829 0.001405544688825511
129.010132 0.00028744392328845135
129.021255 0.011833704598948025
129.069672 0.017355394041902592
130.005264 0.0037849362361945674
130.064957 0.006016543693797556
131.07283 0.03445651820684511
132.080643 0.0022294313175377158
134.096268 0.04263629020152798
141.021286 0.11608111412181432
143.018265 0.0013449512776746986
143.072495 0.0003602237188047904
144.080704 0.024898475812154815
145.088959 0.0023796333407096423
145.62973 0.0002486119127903648
145.641739 0.0006576778863934957
146.096252 1.0
146.552887 0.0006906584980494048
146.564194 0.00024324410062935906
149.155884 0.00023144458560876987
153.023132 0.00025035282484258287
156.081421 0.00026258756787622656
169.016083 0.45609458491240507
171.012756 0.00483586681171688
171.028366 0.00026418340392409315
172.075317 0.012440460807814142
173.078644 0.00023241175897111325
174.091141 0.02198549472078092
206.886856 0.00026205562252693774
231.891846 0.0002327986283160506
236.082016 0.0002752575389229248
240.396011 0.0002095381089516924
302.104889 0.2822967233713961
END IONS

BEGIN IONS
CHARGE=1+
PRECURSORTYPE=M+H
FORMULA=C17H15ClO4
ONTOLOGY=
INCHIKEY=VWGNKHPAHTYIRK-UHFFFAOYSA-N
INCHI=InChI=1S/C17H15ClO4/c1-20-15-5-3-10(7-17(15)21-2)16-9-13(19)12-8-11(18)4-6-14(12)22-16/h3-8,16H,9H2,1-2H3
SMILES=COc1ccc(C2CC(=O)c3cc(Cl)ccc3O2)cc1OC
IONMODE=positive
INSTRUMENTTYPE=LC-ESI-Orbitrap
INSTRUMENT=Orbitrap
COMMENT=DB#=CCMSLIB00010123893; origin=GNPS
NUM_PEAKS=105
COMPOUND_NAME="2-(3,4-dimethoxyphenyl)-6-chlorochroman-4-one "
PRECURSOR_MZ=319.073
COLLISION_ENERGY=205060
PARENT_MASS=318.0657235480092
61.99229 0.008553626812631223
62.38998 0.0010397592598123972
67.944443 0.0012632129771029887
72.984482 0.007230296845597262
79.054626 0.008828123257221696
81.071243 0.0010469430510620101
84.960159 0.0014651153206447416
88.979393 0.00546081563253471
91.054497 0.008353993034747242
98.999741 0.11520154504445065
102.046738 0.0020322567350878674
103.054207 0.01343633629671024
105.033577 0.004299688110031484
105.070007 0.012398845602555615
107.049057 0.004529191335742802
108.0569 0.0018594676508208617
109.029114 0.002053051920284115
110.036598 0.0024931536578919806
113.986877 0.012814371212204278
118.041512 0.005333019767146859
119.049393 0.012374647568872708
120.057213 0.006677901107929658
121.065178 0.002366492075333016
122.036774 0.0013978145394641572
124.052338 0.009910229075979179
125.015411 0.020336178744825305
126.994537 0.052831491321034936
129.010178 0.012533069070640487
131.048782 0.001170957973686907
131.997375 0.01668832516712712
132.057037 0.01656317596167334
133.02858 0.008579715317695606
133.064758 0.011599176208190808
135.044235 0.006884718677063251
137.05986 0.013863960923200356
139.075333 0.014674973145854026
141.010193 0.01405338615562436
145.005203 0.026102872646883008
146.036514 0.002220547684682985
147.044113 0.009297716348380603
148.052032 0.04814992799194508
149.060089 0.005679354124233461
150.068283 0.010176785540767449
151.075607 0.01939283352546824
152.078674 0.002078384236795908
153.010437 0.007803109674184819
154.989517 1.0
160.052002 0.012902845272857406
161.06015 0.0027650034425483858
162.994537 0.0027007274155781648
163.075485 0.10195501207444072
164.084106 0.0014715429233417637
165.054932 0.0027075331125514823
165.070465 0.0018031316036528444
165.090973 0.011173820147358463
173.000046 0.010563954079693955
176.047028 0.018509605296042148
178.670807 0.0011615056167795215
181.005234 0.10125591575757048
181.06459 0.002467443247103892
182.072067 0.001578921697809662
191.070343 0.1444690667839263
194.072678 0.0017278908426700565
195.080704 0.0057247254373889115
197.058899 0.0013936555024249076
205.064514 0.0020001187216027567
211.075851 0.0021940810853423058
215.027512 0.0012862767279570092
222.066788 0.0016118158998473632
223.075531 0.007902548468850515
224.084213 0.0016904595093168101
235.074066 0.007825795330762544
238.099152 0.00534360640688313
239.025787 0.00524794855498039
239.069763 0.00458212453442416
240.077728 0.0019725178394331914
241.08696 0.00811995267772038
242.049408 0.005177623019589442
243.021027 0.0046842099890239235
245.035965 0.0017883859268773231
251.069733 0.006381097101037755
255.020859 0.010657721460215219
255.101837 0.006288085909069083
257.036499 0.009481848260936471
258.045258 0.0022156324590911444
261.030945 0.002011839644167915
265.084747 0.0016038759200451597
266.094025 0.0018564428966104983
268.074677 0.0014741895832758316
269.039825 0.004142022796816295
269.081207 0.010860001898033267
270.044312 0.007199293114941038
273.067719 0.004313299503978119
283.096466 0.015269337348190422
284.103424 0.008343406395010971
285.032318 0.008389533896719011
286.037994 0.00238350631776631
287.046783 0.0019021923040422437
288.018768 0.0016261834823465891
301.062408 0.028152521718680466
303.042053 0.004566244574819753
304.048645 0.0071614836873114965
318.082916 0.0017248660884596932
319.072815 0.638796329309528
319.222931 0.02662161799396032
END IONS

BEGIN IONS
CHARGE=1+
PRECURSORTYPE=M+H
FORMULA=C17H15ClO4
ONTOLOGY=
INCHIKEY=VWGNKHPAHTYIRK-UHFFFAOYSA-N
INCHI=InChI=1S/C17H15ClO4/c1-20-15-5-3-10(7-17(15)21-2)16-9-13(19)12-8-11(18)4-6-14(12)22-16/h3-8,16H,9H2,1-2H3
SMILES=COc1ccc(C2CC(=O)c3cc(Cl)ccc3O2)cc1OC
IONMODE=positive
INSTRUMENTTYPE=LC-ESI-Orbitrap
INSTRUMENT=Orbitrap
COMMENT=DB#=CCMSLIB00010123894; origin=GNPS
NUM_PEAKS=105
COMPOUND_NAME="2-(3,4-dimethoxyphenyl)-6-chlorochroman-4-one "
PRECURSOR_MZ=319.073
COLLISION_ENERGY=205060
PARENT_MASS=318.0657235480092
51.023529 0.0015276020162257261
52.888741 0.001233193172563945
53.21278 0.001168138315174164
61.99213 0.010585897341535627
72.984169 0.007506000954454477
79.054497 0.008228727180346784
88.978828 0.005764240247113487
89.038719 0.0016819292326613372
91.054283 0.009701246251629339
98.999603 0.11689598108185753
103.054497 0.01130719900850699
104.278183 0.001816787477177379
105.033371 0.0022859422151416367
105.069893 0.011261138270063132
107.049408 0.0057134309789331475
108.056969 0.001955444545482605
109.028389 0.0026254620912999813
110.036186 0.0024397945786036
113.98629 0.014619773352675678
117.033546 0.0013922689187360364
118.041733 0.0018699710102259588
119.049263 0.010801005738598187
120.057053 0.005794630837426961
121.064613 0.005044837992036716
124.051964 0.010451039097019586
125.01532 0.020691243473739445
126.99437 0.04052585218301783
129.010406 0.01565732710009663
131.997284 0.01295968735680215
132.057022 0.015784587697034305
133.028259 0.009938672738453357
133.064651 0.009618621834214582
135.044128 0.010141909811174715
135.079895 0.002218513092883616
137.059677 0.011693254476082843
138.067841 0.0016748064380566166
139.074936 0.010629108962137599
141.010056 0.011887944195278537
145.004807 0.020352198450554748
146.036087 0.0019644667519819175
147.044022 0.007082906954934079
148.051773 0.0459458240242365
149.059631 0.00615504424442582
150.067383 0.010558355869064041
151.075302 0.026465930486273187
152.078812 0.011273959300351629
153.010529 0.0026306854740101096
154.989258 1.0
157.966431 0.0018338821842287082
160.051682 0.014838680573527422
161.059158 0.0021197436743648247
162.994598 0.0031720178639688687
163.07515 0.11072811580714322
164.083145 0.0027845378374720727
165.055099 0.0028505424008091495
165.072739 0.0015100324562007487
165.090286 0.015742800635353278
167.085861 0.0016729070261620245
172.999664 0.007706863762307595
176.04657 0.01889202555658704
177.828217 0.0013172421488996469
181.004929 0.0981107974443413
181.064941 0.001764078797102447
191.069992 0.157014884266459
194.0728 0.0019212551313799464
195.080078 0.008251045270108243
199.032303 0.0018918142470137683
211.075089 0.0024193759007367344
221.059174 0.001652963201268807
223.052414 0.0013851461241313158
223.075241 0.00903930120636398
225.055588 0.0034070700859246458
225.959976 0.0013652022992380983
235.075012 0.006780900463693929
238.098923 0.0029360159360657958
239.026184 0.005625108325834614
239.069763 0.0020333204331608825
240.078445 0.0018096646825726584
241.044678 0.0014492512755738005
241.086136 0.005705833331354779
242.04953 0.0029360159360657958
245.035675 0.0030252882951116262
251.070007 0.009166561803301653
253.084885 0.0017303642359734368
254.013275 0.001998181313110928
255.020554 0.009214047100666456
255.100113 0.0030737232984237254
257.03656 0.01030051070437316
258.043854 0.0022584007426700507
266.092072 0.002109296908944568
269.081299 0.009307593136475119
270.043915 0.008497493963431572
273.032654 0.0015703387838540493
273.066315 0.0020451917575020832
277.062531 0.0022721714789058437
283.096405 0.016243295669578307
284.104431 0.0072324856416332095
285.03064 0.007946189661026205
286.037323 0.0021681786776769243
301.061676 0.022052172096214708
303.042297 0.005856836576974854
304.049225 0.0031155103601047526
318.060913 0.005206288003077047
319.072571 0.7024571267121418
319.218994 0.011603507264063364
END IONS

BEGIN IONS
CHARGE=1+
PRECURSORTYPE=M+H
FORMULA=C24H19Cl2N3O3
ONTOLOGY=
INCHIKEY=FMBYXXBOTCCMFU-UHFFFAOYSA-N
INCHI=InChI=1S/C24H19Cl2N3O3/c1-14-19(12-23(30)28-22-10-7-17(26)13-27-22)20-11-18(32-2)8-9-21(20)29(14)24(31)15-3-5-16(25)6-4-15/h3-11,13H,12H2,1-2H3,(H,27,28,30)
SMILES=COc1ccc2c(c1)c(CC(O)=Nc1ccc(Cl)cn1)c(C)n2C(=O)c1ccc(Cl)cc1
IONMODE=positive
INSTRUMENTTYPE=LC-ESI-Orbitrap
INSTRUMENT=Orbitrap
COMMENT=DB#=CCMSLIB00010120022; origin=GNPS
NUM_PEAKS=40
COMPOUND_NAME=N-(5-chloro(2-pyridyl))-2-{1-[(4-chlorophenyl)carbonyl]-5-methoxy-2-methylindo l-3-yl}acetamide
PRECURSOR_MZ=468.088
COLLISION_ENERGY=205060
PARENT_MASS=467.08072354800925
74.015251 0.0010953062618581032
75.023109 0.0063523378064835505
79.017906 0.006931174033835609
81.070007 0.0030340178347822103
83.085587 0.0012236929166622003
84.080643 0.0037880153615728754
85.064888 0.0035431793310641132
86.999672 0.04438256007374802
102.091003 0.011320682091255382
110.999489 0.003244747353578309
111.043762 0.001514329120042253
114.994247 0.004990513517385064
123.116402 0.0009678940788172252
129.009827 0.014008275214213255
129.021088 0.030410096696833065
130.005264 0.0018298143533843892
138.994293 1.0
139.004623 0.03853962738148718
139.419495 0.0009776387964494147
154.999969 0.012426951160449699
174.091034 0.06471905491830517
248.997269 0.004112758076665592
267.008179 0.005508445259535937
270.068115 0.0013162677341680008
296.047363 0.0014921598874290218
297.053558 0.0012098066940363303
311.292694 0.016486356908079054
312.077545 0.12981547402691687
314.094666 0.006547963012949755
340.073151 0.0075148826200037615
341.540436 0.0009505972050200888
354.134918 0.000975446234982172
368.350189 0.00301087413040576
435.053772 0.0029918719310229906
450.077576 0.014881889149939046
468.086365 0.1550413809434251
468.440033 0.04701948066501851
468.500122 0.0008592404772183119
539.165527 0.0008806788560091289
667.516541 0.0008443797828292228
END IONS

BEGIN IONS
CHARGE=1+
PRECURSORTYPE=M+H
FORMULA=C26H29N5O2
ONTOLOGY=
INCHIKEY=SBHHPPCAAYCRQS-UHFFFAOYSA-N
INCHI=InChI=1S/C26H29N5O2/c1-28-22-21(23(32)29(2)25(28)33)31-15-20(26-11-17-8-18(12-26)10-19(9-17)13-26)30(24(31)27-22)14-16-6-4-3-5-7-16/h3-7,15,17-19H,8-14H2,1-2H3
SMILES=Cn1c(=O)c2c(nc3n(Cc4ccccc4)c(C45CC6CC(CC(C6)C4)C5)cn23)n(C)c1=O
IONMODE=positive
INSTRUMENTTYPE=LC-ESI-Orbitrap
INSTRUMENT=Orbitrap
COMMENT=DB#=CCMSLIB00010118681; origin=GNPS
NUM_PEAKS=49
COMPOUND_NAME="7-adamantanyl-1,3-dimethyl-8-benzyl-1,3,5-trihydro-4-imidazolino[1,2-h]purine- 2,4-dione "
PRECURSOR_MZ=444.239
COLLISION_ENERGY=205060
PARENT_MASS=443.2317235480092
53.03904 0.008041227148052827
54.435551 0.001587704353499837
55.054508 0.0019230072135426107
58.357521 0.0016082454296105653
65.038979 0.03618673046483247
67.054642 0.03128889211101848
69.070221 0.0072926861686059856
69.236763 0.001648723432534648
71.284378 0.0017991566075808653
73.028633 0.003863534756709078
79.054466 0.11955872935319777
81.070007 0.03023827648288445
82.39344 0.002221456966445548
90.541069 0.0017822404272543832
91.054314 0.8581874312780174
93.069908 0.15668732857263687
102.089684 0.0016879931368639818
105.069458 0.003386256811783328
107.085411 0.12180918548591728
107.461906 0.0017441790215197979
119.085182 0.002614758159036261
133.101181 0.0031204311209386063
135.116653 0.46261040828409516
137.311508 0.0021000229576733
146.439209 0.0016215367141528014
154.634171 0.0016015997873394473
157.101105 0.002782711663706335
157.961166 0.002089148270320562
175.061157 0.011171324657749422
211.098282 0.0033342999722091324
232.082779 0.039821896787134034
239.091812 0.015464409564891675
246.098587 0.00203356653496212
253.107559 0.002182187262116214
259.106354 0.008293157405057937
259.339966 0.001963485216466693
260.11438 0.0041408392842039125
267.161621 0.0039009920131462886
272.113342 0.0029579149599449016
295.153748 0.018934038979712665
296.113464 0.04670194898563333
298.128265 0.002088544121023187
308.113831 0.0026401324295259846
310.129822 0.0067634513841060406
352.1763 0.05366476963787291
353.182373 0.013071374197991807
387.2164 0.003430963859789031
413.3078 0.0019199864670557387
444.238464 1.0
END IONS

BEGIN IONS
CHARGE=1+
PRECURSORTYPE=M+H
FORMULA=C23H34O5
ONTOLOGY=
INCHIKEY=SHIBSTMRCDJXLN-UHFFFAOYSA-N
INCHI=InChI=1S/C23H34O5/c1-21-7-5-15(24)10-14(21)3-4-17-18(21)11-19(25)22(2)16(6-8-23(17,22)27)13-9-20(26)28-12-13/h9,14-19,24-25,27H,3-8,10-12H2,1-2H3/t14-,15+,16-,17-,18+,19-,21+,22+,23+/m1/s1
SMILES=CC12CCC(O)CC1CCC1C2CC(O)C2(C)C(C3=CC(=O)OC3)CCC12O
IONMODE=positive
INSTRUMENTTYPE=LC-ESI-Orbitrap
INSTRUMENT=Orbitrap
COMMENT=DB#=CCMSLIB00010121326; origin=GNPS
NUM_PEAKS=217
COMPOUND_NAME=Digoxigenin
PRECURSOR_MZ=391.248
COLLISION_ENERGY=205060
PARENT_MASS=390.2407235480092
51.744438 0.002024459329527779
53.038879 0.0048916184166401646
55.018082 0.002541711163111282
55.054379 0.014002922844093121
57.070202 0.0021290233963646354
58.569061 0.0018524545331925946
65.038681 0.00469238983959006
67.054527 0.1020693785677074
69.033386 0.008695523049261432
69.070091 0.027995327409273657
69.489532 0.002001566604835686
71.048843 0.002344338752928103
77.038498 0.0028176613039943474
79.054398 0.12499551426340492
81.070023 0.1668446524451286
83.048653 0.012824875605883801
83.085869 0.014986072561275161
85.028091 0.004686202616700305
91.054207 0.19497486131339892
93.06987 0.17616817861770015
95.049294 0.01476456998182194
95.085457 0.10443908493448349
97.064499 0.015354212323215573
103.053581 0.008996222081703515
104.279701 0.0024148730938713084
105.069733 0.3323986501954544
107.049202 0.01565058029963483
107.085297 0.1632158462202874
108.350121 0.002244105742114075
109.064423 0.028617143309694018
109.101044 0.058122153104067854
111.043167 0.010776904829374954
111.079727 0.01011177836872631
115.053589 0.013569198519521307
116.061211 0.0024489028197649597
117.060913 0.004194318396964796
117.069633 0.0893453546949266
119.048973 0.006817082179931867
119.085327 0.2235171392261269
121.064438 0.021840896800834533
121.092216 0.003128878615349015
121.10099 0.0526118123984522
123.079308 0.008704803883596063
123.115967 0.003543422548962588
125.059517 0.14361596155012207
128.061874 0.04160783648902325
129.069565 0.0749934724798513
130.077164 0.014971841948628726
131.048431 0.0036677857290466605
131.085403 0.12566311561320948
133.063965 0.014254124093417166
133.100998 0.15476409975288233
135.043442 0.003573739941122387
135.080246 0.017378052930454378
135.116638 0.027544897582899505
137.059113 0.010382160009008597
139.074799 0.0037902927422638058
141.069397 0.029246383877582084
142.077332 0.030868054996986822
143.085312 0.1625494823150608
144.092743 0.013088451300987358
145.065109 0.019276911635320134
145.100983 0.1530991180732493
147.080002 0.033109685849944996
147.116577 0.22442789843549882
149.022079 0.01061727447881928
149.059113 0.011659821535742968
149.095795 0.003936929924750995
149.13237 0.016188249968754523
151.074982 0.0046416546118940695
153.054489 0.11574375987635453
153.069031 0.010798560109489097
154.076752 0.00911068570516398
155.069412 0.08846553160000346
155.084595 0.07328703640685692
156.092499 0.011485341850251882
157.063873 0.005200979561127906
157.087143 0.004535234378190287
157.100937 0.10738977153060757
158.107819 0.003736463903122939
159.080704 0.021546384991282204
159.102097 0.0035972513881034553
159.116592 0.10723323479149678
161.059113 0.004473362149292739
161.097504 0.0206152079463741
161.132202 0.3014452115225889
163.074997 0.06013795032154998
163.111496 0.00243652837398545
163.147461 0.004566170492639061
165.068558 0.008738833609489715
166.076538 0.010845583003451233
167.069443 0.009564827865271984
167.084763 0.021466569816004366
168.093231 0.018301186585605797
169.063507 0.0040947041084397435
169.101044 0.06910323628880471
170.107742 0.00752737536767572
171.080521 0.03177324570575795
171.116302 0.05195596677213819
173.058929 0.0023796059233997056
173.096207 0.01820219101936972
173.131821 0.03781135652386969
175.074982 0.03330829570470613
175.111526 0.004631755055270462
175.147385 0.01373996587127854
177.090485 0.02476126600479881
179.085022 0.011120914422045323
180.092804 0.009028395640730241
180.16478 0.00213521061925439
181.084885 0.003431433814658026
181.100967 0.04906158390431089
182.108795 0.01604903745373504
183.078934 0.008542698643884487
183.116592 0.08171960248330377
184.123856 0.003700578010362361
185.094696 0.013514750958091465
185.132416 0.053351185533777906
186.138733 0.00261595783778834
187.075394 0.03336831176673675
187.11058 0.01125950821477583
187.147705 0.03556353844802176
189.072067 0.004361373414988177
189.090591 0.09464718598915751
189.163605 0.029803233937660017
191.105713 0.012660914199305299
193.10112 0.022451575700053333
194.108307 0.003961060094021039
195.080734 0.0035718837742554606
195.099731 0.0031486777285962306
195.11647 0.052461462882231163
196.124207 0.0051335388316295786
197.097397 0.0064291433047442385
197.132111 0.056460265035879705
199.07576 0.0033194450803534638
199.114395 0.015463726168364235
199.147598 0.058172888331763845
200.155884 0.002653081175126869
201.091278 0.015698221915885942
201.126541 0.0099076000133644
201.163177 0.05561942144516203
203.106644 0.01832098569885301
203.141937 0.003076287220786099
205.12204 0.002538617551666405
206.108063 0.0038998065874124663
207.098618 0.00895043663231933
207.116119 0.012769809322164984
208.123169 0.0025955400022521493
209.095169 0.011680239371279159
209.131683 0.03467257835189706
211.112076 0.01881472608545545
211.147705 0.03135870177214438
213.090073 0.005031449653948624
213.126175 0.014139041747667726
213.163132 0.03026603820981368
215.10553 0.01689421210047555
215.142242 0.00500051353949985
215.178513 0.018424931043400893
217.121353 0.0039746719843785
217.156738 0.004791385405826136
219.115326 0.00425124084755054
220.123169 0.003954872871131284
221.133423 0.02257532015784843
222.139954 0.002693916846199251
223.11058 0.010671722040249122
223.148178 0.015900544104380927
225.007126 0.0025973961691190756
225.1259 0.014468202005402683
225.162811 0.01697217110888646
227.10614 0.029484591958837642
227.142227 0.003501968155601231
227.177856 0.008379355959594959
229.122025 0.03540328937517711
231.13797 0.0034722694857304078
231.173615 0.0031542462291970098
233.13118 0.0037333702916780617
235.147217 0.02450078392114013
237.127319 0.00886134062270686
237.162552 0.01250314001561655
239.141632 0.003216118458094558
239.177872 0.010179219098224638
241.121994 0.021706634064126852
243.136993 0.02579824456112172
249.163269 0.017226465969655384
251.17952 0.020564472718678114
253.194229 0.013239419539497374
255.137299 0.02014559772904171
259.134857 0.002906757313606817
262.170349 0.003308308079151905
263.141449 0.004842120633522126
263.178253 0.013215289370227331
267.138062 0.0031431092279954513
267.172791 0.004100272609040522
269.153656 0.002937693428055591
277.161469 0.00337884242009511
277.193634 0.02409428337728324
281.151794 0.01268937542459817
281.187317 0.0031059858906569223
285.185455 0.003305833189996003
291.175903 0.004731988066084491
291.209869 0.04385627328716015
293.224915 0.011260126937064806
295.169708 0.004519766320965899
295.2052 0.01106646686061548
301.19516 0.0028950015901162826
309.183655 0.00745745974902149
309.219788 0.060676238712958644
311.236298 0.004953490645537713
319.204529 0.06071088716114127
322.191956 0.0021729526788818944
327.230804 0.013095257246166087
331.045502 0.0023406264191942502
337.215149 0.5708690697015407
340.068237 0.0020801443355355723
355.225769 1.0
373.236267 0.35485826928526437
373.292053 0.003561984217631853
391.246582 0.08644416588192057
END IONS

BEGIN IONS
CHARGE=1+
PRECURSORTYPE=M+H
FORMULA=C24H18O5
ONTOLOGY=
INCHIKEY=OUKGNBVQMXQZJO-UHFFFAOYSA-N
INCHI=InChI=1S/C24H18O5/c1-16-2-6-19(7-3-16)24(26)29-20-10-8-18(9-11-20)21(25)12-4-17-5-13-22-23(14-17)28-15-27-22/h2-14H,15H2,1H3/b12-4+
SMILES=Cc1ccc(C(=O)Oc2ccc(C(=O)C=Cc3ccc4c(c3)OCO4)cc2)cc1
IONMODE=positive
INSTRUMENTTYPE=LC-ESI-Orbitrap
INSTRUMENT=Orbitrap
COMMENT=DB#=CCMSLIB00010125654; origin=GNPS
NUM_PEAKS=153
COMPOUND_NAME="4-((2E)-3-(2H-benzo[3,4-d]1,3-dioxolan-5-yl)prop-2-enoyl)phenyl 4-methylbenzoa te "
PRECURSOR_MZ=387.123
COLLISION_ENERGY=205060
PARENT_MASS=386.1157235480092
56.965271 0.06633471627132176
59.049881 0.0018220328910586714
63.20974 0.0008875541446617555
70.98082 0.02007508553706596
71.952316 0.004616207695696427
74.975639 0.0014015637623528243
84.959778 0.0013345727190861804
87.262962 0.0009576323327793966
88.991188 0.008203778727040518
92.370049 0.0011153854346653642
98.984306 0.004701412893583956
107.001579 0.0015170229797801273
121.065163 0.0010687695474153034
136.052078 0.005239193526627705
138.03772 0.0009514580430774019
157.423553 0.0010428375306669251
161.06044 0.0073264121603870535
165.054413 0.0018914936502061133
172.028992 0.0013395121508477763
179.001617 0.004183081273101491
179.541122 0.0014599108000366752
180.008957 0.004056508334210597
184.004089 0.0017800477210851067
193.017242 0.0013321030032053824
193.065369 0.001534310990945713
197.012009 0.005712761546770708
198.01976 0.008464951181434898
203.001404 0.0019770075625787416
204.009659 0.002442549006109151
205.017578 0.0023008490574483696
208.004227 0.0044683334573336515
209.012329 0.007493735411311113
210.01976 0.002161001395698187
211.027405 0.005339217019800021
211.075684 0.004877688864575908
215.020081 0.0011215597243673591
216.030563 0.0014796685270830588
221.012299 0.009072192573626089
221.033569 0.0010292540933225366
221.059494 0.006606489981134458
222.019943 0.011532647019871025
223.026703 0.006684594745864692
226.015289 0.0018603134872110395
227.023148 0.012212745030545754
233.01236 0.0012222006465098746
234.020966 0.0020517164679728786
235.026657 0.0038938158005630335
235.074844 0.0048554614216487265
236.083191 0.002398402834739888
237.006454 0.0012793128262533267
237.090302 0.001858461200300441
239.022766 0.0066602063015418125
239.069412 0.018574115710511017
240.030258 0.004826442260049351
240.070847 0.0011014932828358759
241.038025 0.00443437486397268
245.033066 0.0018720446376448295
249.054199 0.007720023128889223
251.024094 0.006977564792224346
251.070648 0.011416261658988423
252.039169 0.006442253875061396
252.070831 0.0014997349686145418
253.085739 0.011362854053066168
254.093491 0.0016923728073167802
264.076813 0.005199678072534938
265.03714 0.0016676756485088009
265.085236 0.009053052275549905
266.055725 0.0016540922111644124
266.088379 0.0017210832544310563
267.064819 0.5499004550142796
268.068176 0.043090059115736754
281.080444 0.07226759124596857
282.088104 0.20376421745971815
283.092377 0.017026838711191115
284.033264 0.0014574410841558774
295.028839 0.004241737025270442
296.034241 0.0011792893330810107
297.111664 1.0
298.114929 0.09020513768820393
298.153534 0.0025802356664636353
300.030853 0.0012793128262533267
303.056152 0.0014963391092784448
309.042877 0.004647387858691501
310.013763 0.002264112033721501
310.051727 0.0014549713682750795
311.022369 0.003394624478156752
311.059235 0.0023289420755924464
312.029663 0.007054125984529082
313.038086 0.0068491395664228545
314.045502 0.00458934953549275
315.052063 0.008609429560461578
322.012878 0.0023845106829103995
323.021606 0.0015796920202553748
324.028046 0.009509023570042224
325.037201 0.012807637843332956
326.044586 0.009826382060724757
327.053497 0.01368469569550132
328.060577 0.0011971947732167957
329.03006 0.003958954556919079
329.069702 0.002189711842812463
331.048553 0.003894124515048133
333.062744 0.0048270596890195505
336.028656 0.0022483675949814138
337.037262 0.006140948537604048
339.053223 0.005291366274609561
340.022766 0.01052654651293097
340.058472 0.001736827693171143
340.600983 0.0011545921742730314
341.031036 0.006778135234849914
341.070129 0.0035032919769118613
342.037323 0.008772430808594241
343.005981 0.0017291098310436494
343.048431 0.025694924023821644
344.054443 0.004253468175704231
345.064789 0.0062715347648012384
348.111664 0.01687803832937304
348.612396 0.004213026578156166
354.039948 0.0062690650489204405
355.046509 0.013859119379582674
356.055664 0.0047946446680840775
357.022675 0.00218168526619987
357.064514 0.007266830264762804
357.116547 0.02361573196667489
357.617371 0.005536176861293656
358.029297 0.00940714778995931
358.072235 0.005738384849033986
359.037628 0.001533076133005314
359.080017 0.004777356656918493
361.059601 0.003989208576458853
366.121368 0.0020841314889083517
368.626038 0.007014610530436316
369.063446 0.0013348814335712802
370.071716 0.003965128846621074
372.050018 0.00463689156619811
373.056732 0.022487380523635334
373.099487 0.0013676051689918527
374.063049 0.0018698836362491314
385.095398 0.11547094857773693
386.099213 0.010431462451520249
387.111145 0.018834053306965
389.092865 0.0012666555323642373
391.068878 0.008012993175248877
396.068817 0.0015790745912851753
399.110291 0.004520814919800608
403.105621 0.16190809014092508
404.108887 0.017896796130202185
417.121643 0.02727430732959192
418.124695 0.00232431135831595
421.114899 0.013229033115494102
426.121582 0.019341579920468973
427.128815 0.001880997357712722
435.132233 0.0047174660468091425
445.150848 0.0015040569714059383
END IONS

BEGIN IONS
CHARGE=1+
PRECURSORTYPE=M+H
FORMULA=C18H23NO4
ONTOLOGY=
INCHIKEY=QJBUAXNMSWORKG-UHFFFAOYSA-N
INCHI=InChI=1S/C18H23NO4/c1-20-15-8-13(9-16(10-15)21-2)11-19-12-14-6-5-7-17(22-3)18(14)23-4/h5-10,19H,11-12H2,1-4H3
SMILES=COc1cc(CNCc2cccc(OC)c2OC)cc(OC)c1
IONMODE=positive
INSTRUMENTTYPE=LC-ESI-Orbitrap
INSTRUMENT=Orbitrap
COMMENT=DB#=CCMSLIB00010115400; origin=GNPS
NUM_PEAKS=91
COMPOUND_NAME="bis[(3,5-dimethoxyphenyl)methyl]amine "
PRECURSOR_MZ=318.17
COLLISION_ENERGY=205060
PARENT_MASS=317.16272354800924
51.023731 0.00031803778496546683
52.031429 0.0004097247603046951
55.01833 0.001061961796100446
59.049709 0.002140626783178496
65.038971 0.013033680494862279
67.054657 0.007394141495710259
71.04966 0.0003033209194014154
71.955757 0.00022021125834798398
75.044197 0.00046096292722248145
77.039207 0.0009558739615129588
78.046448 0.00257784409295714
79.054337 0.0024284633931060786
80.062172 0.0003638135569959826
81.033669 0.0008839148090310632
82.390846 0.00027014025624320134
91.054367 0.10169823599857274
92.370537 0.000222152440002138
93.069977 0.01899148299777676
95.049133 0.00328163530198647
95.079437 0.0003125753900781962
95.085617 0.0034231158439427187
103.054131 0.002584344794310586
104.277962 0.0002296463040623605
105.0336 0.0003017860315818518
105.044838 0.0007832893693308467
105.069817 0.0030584896992775553
106.041443 0.0034364332529654034
107.049217 0.0012739568902378246
108.056938 0.0038441265440971465
109.064873 0.008933498547454398
119.049377 0.0011091370246723285
119.060341 0.003783092181389792
120.056923 0.00026702533684467514
121.064774 0.03322503947370322
122.072777 0.00034674921594318676
123.080391 0.02356368809345986
124.051712 0.002364946123631783
125.060226 0.00037844013504123613
135.044052 0.0747726018551557
135.080566 0.008798022125498206
135.63887 0.0003549653801537921
136.051895 1.0
136.194321 0.00023276122346088673
136.46524 0.0003097764769954625
139.075226 0.012085977553800527
148.052368 0.0002970007930855651
149.059387 0.0003638587007553815
150.067154 0.002804601196417969
151.075272 0.3790452419922194
153.090546 0.0013370678658775298
165.090942 0.036596330281855965
166.086273 0.003978384084549567
169.085083 0.0028843250755164807
179.104904 0.0002535724965437938
180.101715 0.012855768939071094
183.080338 0.0004097247603046951
194.072693 0.0002733003194011265
195.080383 0.002765777563334889
196.089706 0.00022219758376153693
201.091019 0.0004611886460194761
208.086349 0.0006785558475253274
209.095596 0.0010633612526418127
210.103485 0.000446291205417829
211.075363 0.0033443399837915846
212.083832 0.00024472431970160334
213.090546 0.00024729751398734243
223.074707 0.003233196048151417
224.082474 0.0007602209082779931
225.090683 0.0012285874120418992
226.098038 0.0014336755109912414
227.105774 0.0009227835858735425
238.098343 0.008080236351055209
239.07019 0.0030780820908566913
239.104889 0.0032147322505572547
241.083603 0.00041631574917693897
241.121658 0.0019701639476881337
243.101883 0.0002873851723335929
253.084885 0.00036679304511631197
254.093353 0.0047770223320760495
255.099747 0.0019249299007704052
266.526581 0.00024517575729559265
268.10849 0.0003968136451166009
269.11673 0.013625424893063462
270.12439 0.0010119425106864307
271.096283 0.0007759760803082199
273.146576 0.00023501841143083326
285.111725 0.0004559519699292001
286.118225 0.0008317286231658993
289.142059 0.0008532621963991893
301.142883 0.1388771916392313
318.169281 0.10019372992908457
END IONS

BEGIN IONS
CHARGE=1+
PRECURSORTYPE=M+H
FORMULA=C11H14O5
ONTOLOGY=
INCHIKEY=WKGYQHYYELHOBX-UHFFFAOYSA-N
INCHI=InChI=1S/C11H14O5/c1-14-6-9(13)11-8(12)4-7(15-2)5-10(11)16-3/h4-5,12H,6H2,1-3H3
SMILES=COCC(=O)c1c(O)cc(OC)cc1OC
IONMODE=positive
INSTRUMENTTYPE=LC-ESI-Orbitrap
INSTRUMENT=Orbitrap
COMMENT=DB#=CCMSLIB00010116702; origin=GNPS
NUM_PEAKS=81
COMPOUND_NAME="1-(2-hydroxy-4,6-dimethoxyphenyl)-2-methoxyethan-1-one "
PRECURSOR_MZ=227.091
COLLISION_ENERGY=205060
PARENT_MASS=226.08372354800926
53.039082 0.005210581010347259
55.01852 0.0011762811359814752
61.005039 0.0006208720675085467
65.039047 0.0037211267117319732
66.046753 0.012146921779243256
67.018211 0.0012707120823255377
67.054718 0.0016796847557431806
68.997368 0.005037457608716478
69.033913 0.006869737299493905
69.070412 0.0015423721236196887
72.242363 0.0006993364287219706
77.038902 0.012692066614417918
78.046478 0.0009048491887606189
79.054497 0.055164323532283066
81.033989 0.001416008007014349
81.070122 0.024868184435042913
83.013 0.0010943953636686286
83.086143 0.0009728212226024804
84.959877 0.0010791130607578745
90.976692 0.0016671395817119646
91.05439 0.011410177922500932
92.369293 0.000855808963002229
93.033867 0.0009625569893042127
93.070091 0.0010832187540771815
94.041412 0.03457928960557061
95.049332 0.007314976930565427
96.05732 0.0012011433899706124
97.06543 0.000736743856742324
105.033508 0.009563528305105932
105.04467 0.0010998696214277047
107.049072 0.021369905632919996
107.085579 0.000759097075925218
108.05687 0.00413169604366268
109.064796 0.3308716660629777
111.044167 0.002834525048834941
111.080177 0.002806469477819676
121.064819 0.012442075510086775
122.036049 0.01092433754638293
123.044594 0.0008555808689289341
123.080177 0.001204564801070035
124.051857 0.01702653828923971
125.059624 0.00943990131738013
135.044144 0.01312270822479857
135.055374 0.0028888114382791125
136.051941 0.0027727115549720403
137.059677 0.3726646588305708
138.06691 0.006317749642120399
139.075241 0.038442062736818675
149.059784 0.003484136969578637
151.039276 0.006736074172543131
151.075134 0.00875242578046949
152.046997 0.00705198446405648
153.054108 0.0074376915419980495
154.062561 0.0007969606920921609
154.921768 0.0006721932339998851
155.070099 0.12653359050179783
163.038849 0.02201746470700404
164.047745 0.005115465781783312
164.150909 0.0008902511680697493
165.054474 0.021159602897342155
166.062683 0.006579829732336167
166.510956 0.0009808045151677997
167.07019 1.0
167.633331 0.0009324485716292942
169.085953 0.0025539693386822915
178.086594 0.0011267847220764954
179.033463 0.0008019787617046473
179.070297 0.0027891343282492684
180.041336 0.0031597871973533787
181.085785 0.026401204701657514
181.177643 0.0013407369628270526
184.098953 0.0012855381970897021
194.057892 0.0010387404097846884
194.787247 0.000684738408031101
195.065079 0.36053963408236384
199.09639 0.025499320735849727
203.577805 0.0007600094522183974
209.080658 0.021543029034550777
227.091049 0.05074180754516947
227.183578 0.005656276829565371
232.187424 0.0007116535086798919
END IONS

BEGIN IONS
CHARGE=1+
PRECURSORTYPE=M+H
FORMULA=C20H21N5O3S
ONTOLOGY=
INCHIKEY=GGNDGAWAIQTBPJ-UHFFFAOYSA-N
INCHI=InChI=1S/C20H21N5O3S/c1-5-27-15-9-7-6-8-13(15)19-23-14(11(2)28-19)10-29-20-24-16-17(25(20)4)21-12(3)22-18(16)26/h6-9H,5,10H2,1-4H3,(H,21,22,26)
SMILES=CCOc1ccccc1-c1nc(CSc2nc3c(O)nc(C)nc3n2C)c(C)o1
IONMODE=positive
INSTRUMENTTYPE=LC-ESI-Orbitrap
INSTRUMENT=Orbitrap
COMMENT=DB#=CCMSLIB00010116935; origin=GNPS
NUM_PEAKS=90
COMPOUND_NAME="8-{[2-(2-ethoxyphenyl)-5-methyl(1,3-oxazol-4-yl)]methylthio}-2,9-dimethylhydro purin-6-one "
PRECURSOR_MZ=412.144
COLLISION_ENERGY=205060
PARENT_MASS=411.13672354800923
51.023579 0.00041950539965243715
56.049622 0.00020235478302736855
59.049141 0.0002019196114509656
62.76152 0.00017846386348284698
63.023602 0.00032677033672097
65.03878 0.00018960425583876232
66.737984 0.00019469576328267675
68.049858 0.0012002032077193172
69.033836 0.006957087991953851
70.065567 0.0005033629624252843
77.034813 0.00020679353310667858
77.039124 0.001089452041524768
79.054497 0.0014615237393492844
80.049606 0.003302343024691374
81.057823 0.000315238289946292
82.396713 0.0002180209597778745
86.224373 0.0002178904083049536
90.772636 0.00019913451336198677
91.054329 0.013885193556919266
91.467216 0.00023277327621793427
92.049339 0.0005147644577270414
93.069939 0.0009934967089279192
94.065376 0.0016429467695516715
95.04924 0.0004949206338430672
96.037392 0.00046023745920375266
96.044296 0.011620604190475992
98.059868 0.0011337089908449473
102.04615 0.00042716441939712896
103.054169 0.009766599206368893
104.049263 0.0009188647835748144
105.069679 0.0014147427948859681
107.049133 0.008288321361328095
110.060417 0.00047181302313607093
115.053688 0.0009635569044713966
117.069801 0.0014075624638753195
119.038513 0.00023534078851871165
119.049362 0.00027132947788723505
119.085022 0.0020669779535986994
120.044296 0.03504567256245822
121.028374 0.0013484661637997999
121.064369 0.0040476613835966945
122.059776 0.005774161095817731
125.015038 0.00045766994690297526
128.061981 0.0031243143327849303
129.069611 0.005581336570313587
130.041687 0.00046968068241169653
130.064529 0.0002876484120023454
130.652206 0.00024978848485528936
130.662521 0.001048502396185251
131.049057 1.0
131.437653 0.0011648237585577578
132.044083 0.004375432614943392
132.056305 0.0011941108056496758
133.051895 0.00043586785092518784
133.064438 0.0012448953286158995
143.085541 0.00038873876920074907
144.081604 0.0003909146270827638
145.064453 0.007619506165554412
146.059784 0.001296593711892569
146.096039 0.0009527646493766036
147.080185 0.003311916799372239
148.075089 0.003825723879631194
149.059967 0.0003674153619570049
152.06134 0.0003278582656619773
153.070633 0.0007522811041277678
156.056229 0.0022319950153706952
156.079376 0.0004938762220597001
157.064209 0.00393155760701239
159.067902 0.0026271308067445675
170.095749 0.002049484056227301
171.079559 0.0019389504758209534
172.075287 0.013482398745800704
173.059494 0.009906985556916482
173.083496 0.005428156175419752
174.055328 0.0017209295160430789
174.090958 0.007546701960822199
181.064865 0.0003398254840130583
183.066666 0.0019661922165037774
184.050095 0.0004938327049020598
188.070297 0.004534009137384624
197.048187 0.0021156301358405483
198.091492 0.005983478624067547
208.532761 0.00044622493444357786
214.085724 0.0002852549683321292
215.283676 0.0003959626173690379
216.101624 0.48186670503139284
216.925232 0.00036006096231579513
257.128021 0.0008820057510534851
261.157715 0.00030344514022577224
412.142761 0.03563676611468634
END IONS

BEGIN IONS
CHARGE=1+
PRECURSORTYPE=M+H
FORMULA=C17H20N4O6
ONTOLOGY=
INCHIKEY=AUNGANRZJHBGPY-UHFFFAOYSA-N
INCHI=InChI=1S/C17H20N4O6/c1-7-3-9-10(4-8(7)2)21(5-11(23)14(25)12(24)6-22)15-13(18-9)16(26)20-17(27)19-15/h3-4,11-12,14,22-25H,5-6H2,1-2H3,(H,20,26,27)
SMILES=Cc1cc2nc3c(O)nc(=O)nc-3n(CC(O)C(O)C(O)CO)c2cc1C
IONMODE=positive
INSTRUMENTTYPE=LC-ESI-Orbitrap
INSTRUMENT=Orbitrap
COMMENT=DB#=CCMSLIB00010124170; origin=GNPS
NUM_PEAKS=66
COMPOUND_NAME=83-88-5
PRECURSOR_MZ=377.146
COLLISION_ENERGY=205060
PARENT_MASS=376.13872354800924
53.002838 0.0012038197427573492
53.039101 0.01587622461686449
55.018341 0.005779186524487227
55.528881 0.0008256386348911253
57.033958 0.07667820705813143
58.902679 0.000995706565530666
59.049751 0.007685991569854764
61.028839 0.04169020834599142
66.730789 0.0009573773991928729
69.033859 0.14636006362073772
71.013153 0.022073341014308988
71.049477 0.029445033420193847
73.028763 0.022451806041925863
75.044411 0.021071672134014664
75.273003 0.0008563019679613597
81.033737 0.03260392456592929
82.381607 0.0012924027049602484
83.934967 0.0009383547758993016
87.044212 0.004531927059880379
92.361794 0.0009105306403355705
99.044006 0.026928084830678777
103.053833 0.0010726488179569021
117.054527 0.005628141217141258
118.63047 0.0010953623980089276
126.112373 0.0008886688195354959
130.06485 0.0017665486885462798
140.634705 0.0009815105779981499
145.076035 0.017666338644714747
147.091797 0.001402563568212572
157.063293 0.0034161224398246283
157.076172 0.002146149395165755
159.091721 0.00567527189574921
170.070343 0.009066977237017911
171.092789 0.0011896237552248333
172.086807 0.391729758367257
173.071442 0.003196368552821282
174.102921 0.007920509283891927
175.086121 0.006643722165217446
182.071518 0.0013273248342902375
183.091705 0.0014255610680152476
184.086746 0.0035884617284693715
186.102554 0.005370342083550769
190.097412 0.016682556708711396
191.080521 0.001577458134613168
197.081543 0.0017035185039019091
198.065979 0.0692349668750827
198.101318 0.004102356477146448
199.098358 0.00126713384715237
200.081696 0.058789275328906834
210.102921 0.0015101691537090425
214.097748 0.008615544833483906
216.076614 0.22377248715405088
218.092087 0.012120250235511432
224.117645 0.0033295269158762813
225.076508 0.003950175490797877
226.097382 0.0013102896492512184
228.113007 0.0017597346145306722
229.084808 0.007900634901346404
241.084244 0.0010641312254373926
243.087402 0.3967159570281779
244.071106 0.011833491287354612
244.096924 0.001397453012700866
257.1026 0.001277922797677082
329.050873 0.00096362363370718
359.133911 0.013549786180035786
377.145081 1.0
END IONS

BEGIN IONS
CHARGE=1+
PRECURSORTYPE=M+H
FORMULA=C30H48O4
ONTOLOGY=
INCHIKEY=KLHSKTMVSOWVLD-UHFFFAOYSA-N
INCHI=InChI=1S/C30H48O4/c1-25(2)12-14-30(24(33)34)15-13-28(6)18(19(30)16-25)8-9-21-27(5)11-10-22(32)26(3,4)23(27)20(31)17-29(21,28)7/h8,19-23,31-32H,9-17H2,1-7H3,(H,33,34)/t19?,20-,21?,22+,23?,27-,28-,29-,30+/m1/s1
SMILES=CC1(C)CCC2(C(=O)O)CCC3(C)C(=CCC4C5(C)CCC(O)C(C)(C)C5C(O)CC43C)C2C1
IONMODE=positive
INSTRUMENTTYPE=LC-ESI-Orbitrap
INSTRUMENT=Orbitrap
COMMENT=DB#=CCMSLIB00010123632; origin=GNPS
NUM_PEAKS=89
COMPOUND_NAME=Sumaresinolic acid
PRECURSOR_MZ=473.363
COLLISION_ENERGY=205060
PARENT_MASS=472.3557235480092
53.039188 0.007643398040240838
55.054668 0.036909921913210665
57.070179 0.011603393317929605
59.04937 0.010186699947717268
60.224442 0.005423911760241512
66.732857 0.004735803551852664
67.054573 0.10842089285413117
67.166908 0.00447438989425396
67.953812 0.005027574924527347
69.07019 0.08698834601049028
73.941467 0.005638102305499806
74.879066 0.00466159580388916
79.054443 0.055021672035484796
81.070061 0.204265258968175
83.085648 0.04948307557384514
85.064972 0.009436189769450019
87.13591 0.004457524496989527
91.054039 0.06976540232405175
93.069946 0.15981819101748942
95.085548 0.4927343868584825
97.101151 0.01821462904558717
104.271278 0.005415479061609297
105.069801 0.16929485774037406
107.085457 0.28614507614726864
109.064774 0.008387162059602314
109.101097 0.3304858920951883
111.080269 0.006631474204374884
111.116913 0.005612804209603158
117.06929 0.0071408092017607476
119.085457 0.3096419476160761
119.095177 0.010889987013644107
121.101089 0.22696439714637479
123.080109 0.01063869259440406
123.116623 0.0776786467205235
131.085419 0.048740998094210106
133.065201 0.03672271600357546
133.101059 0.19701482468419543
135.080307 0.0955593409002749
135.116608 0.16133270369183547
137.095978 0.04800566677348085
137.132538 0.009626768758538108
138.940186 0.005447523316411718
143.084915 0.00782554433069671
145.100952 0.11711163206449328
147.116623 0.1412662540266136
149.095886 0.03233602617509655
149.132431 0.10210648811832762
151.111481 0.011444858583643937
153.091248 0.011060327526014876
157.101059 0.026603477644915927
159.116516 0.10322129087750662
161.095444 0.0077310981060158875
161.132324 0.0938593088560201
163.110901 0.008135867640362268
163.147919 0.11592599463680367
171.116104 0.02473985124719613
173.132553 0.041949302615823116
175.147598 0.09511409441249388
177.126892 0.03260081291214815
177.163513 0.14858583643937734
179.143173 0.007142495741487191
185.131897 0.029005110215371124
187.147797 0.12041387684886917
189.163559 0.24189870642402983
191.179504 0.08745551751471506
199.147629 0.008673873813097668
199.936066 0.005388494425986204
201.163681 0.05230465653618471
203.179276 0.284320240163257
205.158691 0.22190983758622435
205.192642 0.055026731654664124
207.174164 0.020036091950145885
209.96283 0.008358490884252778
213.163193 0.028534565631693456
215.179596 0.01944242996643786
217.158798 0.011522439411060327
217.194931 0.007027811040089049
219.17424 0.047978682137857755
227.178238 0.011281264230178941
231.174057 0.031087986777528543
236.496094 0.005821935135682121
249.183746 0.006822053193462972
391.335724 0.049945187458890594
409.345703 1.0
427.355438 0.02505692071576746
437.341492 0.15114094412493886
455.351471 0.2521022717690115
473.292419 0.00812068878282428
473.360962 0.04472197392609583
END IONS

BEGIN IONS
CHARGE=1+
PRECURSORTYPE=M+H
FORMULA=C17H14FNO6
ONTOLOGY=
INCHIKEY=ZYJFTUZFDDQOJY-UHFFFAOYSA-N
INCHI=InChI=1S/C17H14FNO6/c1-23-17(22)13-12(9-4-2-3-5-10(9)18)15-14(25-16(13)19)11(21)6-8(7-20)24-15/h2-6,12,20H,7,19H2,1H3
SMILES=COC(=O)C1=C(N)Oc2c(oc(CO)cc2=O)C1c1ccccc1F
IONMODE=positive
INSTRUMENTTYPE=LC-ESI-Orbitrap
INSTRUMENT=Orbitrap
COMMENT=DB#=CCMSLIB00010121370; origin=GNPS
NUM_PEAKS=119
COMPOUND_NAME="methyl 2-amino-4-(2-fluorophenyl)-6-(hydroxymethyl)-8-oxo-4H-pyrano[3,2-b]pyra n-3-carboxylate "
PRECURSOR_MZ=348.088
COLLISION_ENERGY=205060
PARENT_MASS=347.08072354800925
55.018291 0.025206037844407142
57.03389 0.010339985299119045
67.018272 0.031234496116943924
68.026207 0.0032296835897454653
68.997421 0.010978730043797898
69.033707 0.0031461835610994697
71.013008 0.003327811360636014
73.951981 0.001827248802048859
74.062073 0.0017394823485815357
83.012993 0.04486816137812836
85.028526 0.02288144580604345
89.038689 0.12653545581873302
95.012573 0.014017643495103973
96.020103 0.007308995208195436
97.028389 0.00878944462119633
101.023232 0.03548995013158873
101.387604 0.00247391690711018
103.054062 0.022142744822693478
104.287567 0.0021137087543380397
109.044731 0.48620482008486526
111.007477 0.007766112153337746
113.02314 0.010736762807502569
115.053749 0.003417406281883907
117.033279 0.009979167657086714
117.069977 0.0028639900336316173
121.044594 0.018931955400013897
123.023903 0.055122818180820835
123.060181 0.016845064173124206
124.014671 0.003418015771144097
125.023468 0.004677830071956302
125.03965 0.008183612296567722
128.06192 0.003162639771124593
131.049057 0.007589969757142909
133.027786 0.0027993841720515044
133.044678 0.023358675896772024
134.052612 0.002387369432163236
135.060135 0.009924313623669637
137.039856 0.027841469405467605
143.033691 0.0032747857949995064
145.028091 0.0101821275807299
145.064697 0.017560604564586968
146.051971 0.015865614931999283
147.024704 0.006472166453954915
147.060272 0.17672567741683823
148.055603 0.003016362348679054
149.039581 0.1697067990964931
151.054932 0.008625492010205288
155.048477 0.02144122268421508
155.060837 0.010867802998443364
157.045395 0.002416015427392154
158.040192 0.010657529203677902
159.043808 0.01373727843541669
159.060349 0.03131251074224821
161.039383 0.02329407003519191
163.055069 0.009166718473253782
164.049927 0.018665608593310977
165.034637 0.027333155362469358
171.043106 0.001916234234036562
171.059814 0.0037837093272579444
172.055634 0.0029017783677633816
173.039505 0.015640103905729077
173.059494 0.03217189059911575
174.03476 0.010769675227552815
175.018875 0.009312995895699321
175.055206 0.3115910229545845
177.035034 0.004416359179334901
179.04953 0.004652231523028333
183.044327 0.023282489739248305
184.053574 0.0032497967353317266
185.03949 0.007950787399175239
186.070663 0.003695942873790621
187.018799 0.012107504153669308
187.055237 0.011475463790852541
188.049927 0.0038598954847816626
189.034927 0.0025068293271604263
191.049942 0.0031638587496449727
193.065811 0.023046617395554872
196.055191 0.003369256630328917
200.048264 0.010615474444724809
201.035263 0.004070778768807315
201.054153 0.07900687381987642
202.043854 0.02122363501832734
203.050049 0.24070010812339476
204.057785 0.009000937394482171
206.091599 0.002052759828319065
213.034546 0.009391620010263798
214.0298 0.0026354315610604626
214.066025 0.011868584363674928
215.049759 0.0035478369835645128
216.045532 0.0033125741291312708
217.064865 0.007700287313237253
219.044006 0.013873194540439003
220.052536 0.017617287065784613
221.060577 0.07236892628714989
224.050034 0.008050743637846358
229.049225 0.9475632009888354
230.057831 0.003419234749664476
231.044205 0.01757096588201019
231.066422 0.0022435299667584556
232.052414 0.011345642578432125
233.061401 0.01649521733777529
235.038956 0.001913796276995803
242.060196 0.017977495218556752
243.041931 0.002010095580105783
245.060623 0.048361753817535984
249.055374 0.6135210316459013
250.062988 0.14348169520904872
252.048035 0.002428814701856139
258.054138 0.0023776176040002
270.057617 0.014485731246929697
273.055542 0.02002781708983506
275.07135 0.015544414091879287
288.066498 0.01688529046429673
298.050293 0.02581308914755613
303.065613 0.14244739193450673
316.060913 1.0
330.077179 0.007429674081713006
334.071442 0.014570450254096073
348.087036 0.8011827748583242
END IONS

BEGIN IONS
CHARGE=1+
PRECURSORTYPE=M+H
FORMULA=C17H24O3
ONTOLOGY=
INCHIKEY=YKPUDDGWRMLKKI-UHFFFAOYSA-N
INCHI=InChI=1S/C17H24O3/c1-17(2)12-14(8-9-20-17)15(11-16(18)19)10-13-6-4-3-5-7-13/h3-7,14-15H,8-12H2,1-2H3,(H,18,19)
SMILES=CC1(C)CC(C(CC(=O)O)Cc2ccccc2)CCO1
IONMODE=positive
INSTRUMENTTYPE=LC-ESI-Orbitrap
INSTRUMENT=Orbitrap
COMMENT=DB#=CCMSLIB00010124635; origin=GNPS
NUM_PEAKS=49
COMPOUND_NAME="3-(2,2-dimethyl(2H-3,4,5,6-tetrahydropyran-4-yl))-4-phenylbutanoic acid "
PRECURSOR_MZ=277.18
COLLISION_ENERGY=205060
PARENT_MASS=276.17272354800923
55.05479 0.16036630725688536
57.070278 0.13721986130943728
67.054581 0.10348778548280904
69.070137 0.161255568571453
72.666939 0.01852912758334687
81.069832 0.02687450299698164
83.085587 0.02816564202101735
85.064842 0.034381920633427675
85.948196 0.019170421800583152
91.054367 1.0
95.085358 0.09165376952740892
97.101212 0.09965712135851768
103.054253 0.02097459619840788
105.069817 0.07946917939991963
107.084862 0.020581269078502964
109.100952 0.09060204701114141
115.054176 0.047293310873784744
115.111679 0.023172097716137527
117.069649 0.19919453446315125
119.085442 0.02346281776128464
128.06189 0.16659968704842198
129.069794 0.6962830587168986
131.049133 0.018187104000820856
131.08519 0.10756641670443177
141.069763 0.23736436627305452
143.085449 0.6322049405306496
145.064926 0.3072654359518089
145.101685 0.03596377970261049
152.062286 0.03409975117784371
153.069687 0.04564304708809672
155.08548 0.07379158792998777
157.064651 0.6041675573530795
157.101089 0.26019444040666606
165.069702 0.0989474224247762
166.077927 0.08158117502201777
167.085312 0.8316217903224428
171.080505 0.07923831348171456
181.100891 0.18880556814392352
183.115891 0.03199630614530872
185.096054 0.21029319971612043
195.116211 0.03971748852083351
197.132324 0.031166898957683133
199.147308 0.1629485853049568
215.142853 0.2002206052107293
217.15892 0.37302802028199844
223.14827 0.23721900625048098
241.158356 0.4390129199408299
259.168488 0.3462561243597746
277.140839 0.032184419115698026
END IONS

BEGIN IONS
CHARGE=1+
PRECURSORTYPE=M+H
FORMULA=C10H9NO3
ONTOLOGY=
INCHIKEY=ILGMGHZPXRDCCS-UHFFFAOYSA-N
INCHI=InChI=1S/C10H9NO3/c12-9(13)5-7-6-3-1-2-4-8(6)11-10(7)14/h1-4,7H,5H2,(H,11,14)(H,12,13)
SMILES=C1=CC=C2C(=C1)C(C(=O)N2)CC(=O)O
IONMODE=positive
INSTRUMENTTYPE=LC-ESI-Orbitrap
INSTRUMENT=Orbitrap
COMMENT=DB#=CCMSLIB00010102104; origin=GNPS
NUM_PEAKS=16
COMPOUND_NAME="(2-Oxo-2,3-dihydro-1H-indol-3-yl)acetic acid "
PRECURSOR_MZ=192.066
COLLISION_ENERGY=205060
PARENT_MASS=191.05872354800925
57.675655 0.002365641853814579
66.77491 0.0023268899066081128
74.526443 0.0022993891207047845
91.054642 0.0035569788424613526
104.333778 0.0020026742584284573
106.48912 0.0021004742727599272
118.065262 0.019891385838050266
118.706245 0.0026449600207691846
128.049484 0.06689097776691429
131.134491 0.0021918044253412443
132.044601 0.014522846131674465
136.907944 0.0020802976892068843
146.060211 1.0
150.05806 0.001946427990353196
185.212723 0.0022512672913040715
192.065735 0.06304633483335545
END IONS

BEGIN IONS
CHARGE=1+
PRECURSORTYPE=M+H
FORMULA=C10H9NO3
ONTOLOGY=
INCHIKEY=ILGMGHZPXRDCCS-UHFFFAOYSA-N
INCHI=InChI=1S/C10H9NO3/c12-9(13)5-7-6-3-1-2-4-8(6)11-10(7)14/h1-4,7H,5H2,(H,11,14)(H,12,13)
SMILES=C1=CC=C2C(=C1)C(C(=O)N2)CC(=O)O
IONMODE=positive
INSTRUMENTTYPE=LC-ESI-Orbitrap
INSTRUMENT=Orbitrap
COMMENT=DB#=CCMSLIB00010102106; origin=GNPS
NUM_PEAKS=24
COMPOUND_NAME=2-oxindole-3-acetic acid
PRECURSOR_MZ=192.066
COLLISION_ENERGY=205060
PARENT_MASS=191.05872354800925
71.896935 0.006828707163947865
72.936989 0.008739778689184487
90.725769 0.008762755043637212
90.947685 0.008210487150496833
118.065056 0.010184298874253815
118.724068 0.006711927717909942
120.4683 0.007471994965624256
128.0495 0.02899965927563518
132.044312 0.008863001387806085
136.297195 0.007391174852459802
136.908417 0.019384842638712138
146.059967 1.0
154.919037 0.010874147867678756
174.424713 0.010862264902013662
180.424164 0.013821893789821297
183.43013 0.009328245750607032
188.924927 0.011614806666408658
189.429779 0.056392733978538646
192.065582 0.05014016034420516
193.93045 0.014419946236432293
198.434662 0.01009550648216579
226.848114 0.008027019632589083
306.813049 0.03927951447358881
324.822235 0.01988909899837474
END IONS

BEGIN IONS
CHARGE=1+
PRECURSORTYPE=M+H
FORMULA=C16H15NO4
ONTOLOGY=
INCHIKEY=HONCWUVXYYRGOG-UHFFFAOYSA-N
INCHI=InChI=1S/C16H15NO4/c1-2-19-13-6-4-12(5-7-13)17-16(18)11-3-8-14-15(9-11)21-10-20-14/h3-9H,2,10H2,1H3,(H,17,18)
SMILES=CCOc1ccc(NC(=O)c2ccc3c(c2)OCO3)cc1
IONMODE=positive
INSTRUMENTTYPE=LC-ESI-Orbitrap
INSTRUMENT=Orbitrap
COMMENT=DB#=CCMSLIB00010117217; origin=GNPS
NUM_PEAKS=39
COMPOUND_NAME="2H-benzo[3,4-d]1,3-dioxolen-5-yl-N-(4-ethoxyphenyl)carboxamide "
PRECURSOR_MZ=286.107
COLLISION_ENERGY=205060
PARENT_MASS=285.09972354800925
50.271759 0.0003009757059174396
53.002789 0.0014262802840429446
53.299938 0.0002538167585908875
55.018379 0.005967154984069565
63.023651 0.0005759504770715024
65.038986 0.032823103692283584
67.018181 0.0025324513498692926
67.05452 0.00025512672934995835
68.013962 0.00020892048803000326
68.99749 0.023926258649677377
69.033943 0.0013863857200166947
71.013153 0.0016230140744052275
80.049637 0.000550227414893383
81.033768 0.006826535498103678
93.033546 0.012047562894673349
95.012871 0.022311342576328226
95.043839 0.00044483431291358856
95.049217 0.026923074785595497
108.044357 0.23861823966764534
109.02874 0.00205558229748388
111.043961 0.02290229817300363
121.028648 0.0013628459424370268
123.043968 0.03253268714460592
125.023247 0.0064878882088420485
134.060028 0.001137094314957143
136.040131 0.0036001966067628947
136.075668 0.1497087776218251
137.0233 0.0014882061744717504
139.038879 0.004836134169904477
149.023254 1.0
150.026871 0.0003552799482934693
164.070511 0.0158443742035477
176.070602 0.0002825964192068389
240.065445 0.0012607873114803218
245.117462 0.00044455644032833107
254.07692 0.00034801556499316713
257.068268 0.0003702056757301559
268.096588 0.0017740576725344623
286.106964 0.6093852577161049
END IONS

BEGIN IONS
CHARGE=1+
PRECURSORTYPE=M+H
FORMULA=C16H15N5O3S
ONTOLOGY=
INCHIKEY=GMUVRLXQBFCUME-UHFFFAOYSA-N
INCHI=InChI=1S/C16H15N5O3S/c1-9(22)10-3-5-11(6-4-10)19-12(23)7-25-16-20-13-14(21(16)2)17-8-18-15(13)24/h3-6,8H,7H2,1-2H3,(H,19,23)(H,17,18,24)
SMILES=CC(=O)c1ccc(NC(=O)CSc2nc3c(O)ncnc3n2C)cc1
IONMODE=positive
INSTRUMENTTYPE=LC-ESI-Orbitrap
INSTRUMENT=Orbitrap
COMMENT=DB#=CCMSLIB00010123947; origin=GNPS
NUM_PEAKS=69
COMPOUND_NAME=N-(4-acetylphenyl)-2-(9-methyl-6-oxohydropurin-8-ylthio)acetamide
PRECURSOR_MZ=358.097
COLLISION_ENERGY=205060
PARENT_MASS=357.0897235480092
57.04512 0.001762870313357342
57.6861 0.0008056009599070646
58.995369 0.0011768038578724277
62.461109 0.0009847455117008594
69.288132 0.0007921376423642794
73.951622 0.0011072891774984552
76.84227 0.0007718052852588487
77.892281 0.0008094476220621461
79.054367 0.0009141317849968636
79.908096 0.0007687829078512848
84.95977 0.0009003937058715725
84.985352 0.006265113604297711
88.236328 0.0008446171046228911
94.065468 0.0012902803914473313
105.033188 0.0016417004554722754
106.040176 0.0016125757277266584
106.065086 0.012483242977986926
107.023918 0.001791995041102959
108.055496 0.0045506013294613935
110.035217 0.0010575573310649016
111.043213 0.0007676838615212615
117.057793 0.001339462714715873
118.650108 0.0012606061405367028
124.050346 0.006518993306533089
126.012161 0.0014751949364737484
132.044327 0.001975535778216847
133.050934 0.0020846161264716574
134.03511 0.0016581861504226245
134.060165 0.01768200688057955
136.076035 0.0017966659880055578
137.0457 0.027962761013199822
139.991287 0.014000476436584065
140.028244 0.001168561010397253
144.044235 0.004723151603275048
148.075607 0.02605206896845435
149.045624 0.038144051452952986
150.012863 0.0018062826433932616
150.053558 0.04719057655695712
150.996216 0.010716251240891997
151.06131 0.11001646096640792
152.027512 0.005561723953082812
153.022705 0.0038057226792881146
154.006912 0.0011960371686478351
157.965866 0.001051237814667268
159.067627 0.0010949249062856934
161.04541 0.008337914982721618
162.053513 0.023441009649901538
163.061295 0.04319993933264258
168.022308 0.027168425278175496
168.037537 0.0014257378516227008
170.039185 0.006061240510078393
177.022522 0.0018161740603634712
179.056808 0.0019749862550518353
181.017685 0.33573090290227914
182.024887 0.0071352835360936435
183.033447 0.006138173753180022
186.032669 0.004035698123845486
191.053131 0.000960841254022853
195.033371 0.8603351157117191
213.043945 0.009039656064441482
222.044571 0.004675892611084047
223.028168 1.0
236.059891 0.006979218957230337
248.583374 0.0009971097829136212
261.592773 0.0008880294346588107
318.985107 0.0010410716361145525
340.082916 0.0035488205996451728
342.63504 0.0008196138006148615
358.096466 0.02719178001268849
END IONS

BEGIN IONS
CHARGE=1+
PRECURSORTYPE=M+H
FORMULA=C11H15NO4
ONTOLOGY=
INCHIKEY=DWOJIEHUWQDXGP-UHFFFAOYSA-N
INCHI=InChI=1S/C11H15NO4/c1-15-9-6-8(12)5-7(11(9)16-2)3-4-10(13)14/h5-6H,3-4,12H2,1-2H3,(H,13,14)
SMILES=COc1cc(N)cc(CCC(=O)O)c1OC
IONMODE=positive
INSTRUMENTTYPE=LC-ESI-Orbitrap
INSTRUMENT=Orbitrap
COMMENT=DB#=CCMSLIB00010117146; origin=GNPS
NUM_PEAKS=51
COMPOUND_NAME="3-(3-amino-5,6-dimethoxyphenyl)propanoic acid "
PRECURSOR_MZ=226.107
COLLISION_ENERGY=205060
PARENT_MASS=225.09972354800925
55.018429 0.0010826294104090946
56.96534 0.0020832483830428073
62.44939 0.001177926455421829
63.35302 0.0011004976063489823
73.571693 0.0013905121712194676
79.054466 0.0057059105701374796
84.960052 0.001724509987634292
91.054207 0.0018500455180837597
92.380867 0.001577899149153162
93.05751 0.00581357790464706
94.065033 0.0017872777528590259
95.073082 0.0018220978269982942
106.065201 0.042234917295451535
107.072929 0.012521023765158758
108.04435 0.002635787980568566
108.080673 0.006880629913467534
110.05986 0.0012498573980516336
120.081299 0.002495133207400732
121.052078 0.005690791327419113
122.059708 0.010641656079378774
123.06781 0.04549838292826744
124.075623 0.007651711292104227
134.060043 0.005509360414798715
136.075851 0.02544202022404885
138.055252 0.009800018234723037
138.091339 0.04735575898827526
148.075211 0.009085290397127526
149.083725 0.007649878656623213
150.054962 0.029631424933647142
150.091583 0.006383069380372199
151.06279 1.0
152.070129 0.0014042569373270736
153.078232 0.0028992293309643463
162.05481 0.08381237661208925
164.070862 0.01296223075721291
165.078445 0.2923942420425822
166.086273 0.2273984502318055
169.327316 0.0012599368931972112
176.070999 0.0026834365030749333
177.07843 0.26008075508247086
178.049622 0.007814815849914485
180.101868 0.03306257671297584
192.909683 0.00426454276431987
193.0737 0.03108149775799957
202.972809 0.001196710969102224
208.096802 0.5590069681382577
210.920822 0.0023224073133151506
211.083084 0.002680687549853412
220.904495 0.0036423630185155745
226.1073 0.019409900538290857
226.160614 0.002283921968213854
END IONS

BEGIN IONS
CHARGE=1+
PRECURSORTYPE=M+H
FORMULA=C23H20ClN5O2
ONTOLOGY=
INCHIKEY=QDMKSFGLJQCAOX-UHFFFAOYSA-N
INCHI=InChI=1S/C23H20ClN5O2/c1-4-17-18(14-9-6-5-7-10-14)28(16-12-8-11-15(24)13-16)22-25-20-19(29(17)22)21(30)27(3)23(31)26(20)2/h5-13H,4H2,1-3H3
SMILES=CCc1c(-c2ccccc2)n(-c2cccc(Cl)c2)c2nc3c(c(=O)n(C)c(=O)n3C)n12
IONMODE=positive
INSTRUMENTTYPE=LC-ESI-Orbitrap
INSTRUMENT=Orbitrap
COMMENT=DB#=CCMSLIB00010122683; origin=GNPS
NUM_PEAKS=156
COMPOUND_NAME="8-(3-chlorophenyl)-6-ethyl-1,3-dimethyl-7-phenyl-1,3,5-trihydro-4-imidazolino[ 1,2-h]purine-2,4-dione "
PRECURSOR_MZ=434.138
COLLISION_ENERGY=205060
PARENT_MASS=433.1307235480092
54.0341 0.005380171360735428
56.049721 0.0015930469762854903
57.044979 0.001107667452772294
65.070038 0.0008444793899705609
68.049896 0.025607439314273624
69.044884 0.0035054625441630835
70.696243 0.0008280301360454526
71.060562 0.0008538428114356225
73.937859 0.001003657554876609
82.028862 0.0012134488087829907
83.048363 0.0014085622668792753
83.060432 0.0009363421465061658
84.055771 0.0009082518821109808
91.054237 0.013053368718630956
92.3573 0.0010512338585369223
94.39386 0.0009834123192764758
96.055511 0.001444497560069512
98.096062 0.004491911648779579
103.053772 0.0035593654839484383
104.049263 0.006976255122360939
105.069542 0.003888097497005603
110.058594 0.006251475687876166
115.05426 0.008368368135315106
116.048973 0.004570361936730096
117.069733 0.00873657835779253
118.065147 0.0014457628872945204
125.015289 0.0015884917982754603
128.050171 0.0010821078428271257
128.061584 0.007994337407602643
129.069763 0.0364161175357398
130.064789 0.0044628091226043875
131.084717 0.0008199320418053992
138.010437 0.01438575828656473
142.064697 0.003211400497071147
143.072281 0.0013665534030089987
144.080765 0.021396177244000895
147.044128 0.0013394754003938204
152.025909 0.0017557680574215616
154.064743 0.006007773664339561
155.05925 0.0010411112407368557
156.067673 0.0035980844970336934
156.080719 0.02562920294254377
157.074936 0.0019308893453627149
157.088318 0.0015684996281203286
164.025696 0.0030631041463001704
165.021286 0.001104630667432274
167.059982 0.0014108398558842904
168.080734 0.001056042101991954
168.101303 0.0014601876176596152
169.075882 0.00186939444222731
171.090973 0.008401266643165322
174.091522 0.01021397442571226
175.074554 0.0036107377692837766
178.041779 0.0048543013660219654
179.000839 0.0011018469475372558
180.032089 0.001480179787814747
181.016983 0.0029213874970992373
181.075775 0.011760710425562444
182.084213 0.00835394340495001
183.076447 0.001395149798294187
183.092865 0.002835345245798671
184.086823 0.0049985486696729154
185.108078 0.0020581812641985533
190.016098 0.00868495300701219
192.03157 0.0011706807485777088
195.091553 0.0012491310365282254
196.087006 0.0031473749394857254
197.107712 0.0017620946935466035
204.078873 0.004091055983896939
205.052246 0.004384358834653871
206.048004 0.0040963703582419745
210.101974 0.0009780979449314409
211.961548 0.0010061882093266258
212.119064 0.007579563143244912
213.546951 0.0010874222171721607
214.041611 0.03688454167443789
217.088287 0.003937192193335926
218.080826 0.011214089064358845
219.104935 0.007584371386699943
222.102295 0.0058235420203783484
223.097214 0.004238593138332911
225.046555 0.0046402079995505555
226.043793 0.0008854759920608309
227.049103 0.0019486039265128317
228.056824 0.0018410511123871233
231.091965 0.004506083313699672
232.095657 0.003648444520589025
238.042038 0.0012592536543282922
240.057404 0.010438949606318741
244.093933 0.0012043384527629306
245.10614 0.00196657157310795
246.115662 0.001353393999868912
251.048752 0.001134998520832474
252.058365 0.007868563881436814
253.051071 0.012054519407209379
254.07283 0.012964036616545369
256.095154 0.001068189243352034
258.102264 0.006443046229742427
259.110107 0.0018106832589869233
261.12561 0.0049815932848578034
265.052246 0.05123132788247236
266.0495 0.008729492525332484
266.072937 0.0013986927145242104
267.067291 0.0060472518737598215
269.085083 0.0013521286726439039
272.118317 0.008608780308066688
273.125488 0.0020761489107936713
278.048553 0.0041920290964526045
279.060181 0.007710904109200776
280.063019 0.01870305477829316
281.082794 0.011322401074819558
286.097107 0.003169138567755869
286.132019 0.0010975448349722274
287.10376 0.0013733861700240438
287.138885 0.0011296841464874389
291.065186 0.004093333572901954
292.063324 0.014292377137359116
293.071899 0.015600725488017731
294.078552 0.02761298296591183
295.092041 0.005695997036097508
296.093536 0.008116061886648445
298.120544 0.0011036184056522674
299.128387 0.006468605839687596
300.15863 0.0034462452300326935
304.063507 0.0012931644239585155
306.078613 0.035531906870903976
307.088074 0.004212527397497739
308.094299 0.08867463805947393
313.14386 0.0057822923528430764
314.154999 0.0017481760940715118
318.077332 0.0013984396490792088
319.074799 0.009459839399607293
320.093292 0.01835281220241085
321.095825 0.01686858336747608
322.072845 0.03430074348097087
322.110657 0.0654224788418308
332.092712 0.004172796122632478
333.089905 0.06377249214041994
334.100739 0.011459562546010462
336.087891 0.0034581393059477717
347.065613 0.024677676869337504
347.111633 0.01052549798850931
348.113953 0.04232924472364874
349.120911 0.33338765804886034
350.106018 0.0011375291752824905
359.106873 0.0010147924344566825
361.084412 0.08640008583979894
362.092255 0.08617612292097247
372.181183 0.004000964685476347
377.115875 0.12036830132603762
399.172302 0.0009694937198013842
418.103851 0.0012129426778929872
419.113647 0.0017638661516616151
434.137207 1.0
450.342407 0.0009310277721611308
457.405853 0.0009451994370812242
END IONS

BEGIN IONS
CHARGE=1+
PRECURSORTYPE=M+H
FORMULA=C29H36N2O4
ONTOLOGY=
INCHIKEY=JVVADJZDSMGGOB-UHFFFAOYSA-N
INCHI=InChI=1S/C29H36N2O4/c1-3-30(4-2)23-12-10-22(11-13-23)28-24-7-5-6-16-29(24,33)17-18-31(28)27(32)15-9-21-8-14-25-26(19-21)35-20-34-25/h8-15,19,24,28,33H,3-7,16-18,20H2,1-2H3/b15-9+
SMILES=CCN(CC)c1ccc(C2C3CCCCC3(O)CCN2C(=O)C=Cc2ccc3c(c2)OCO3)cc1
IONMODE=positive
INSTRUMENTTYPE=LC-ESI-Orbitrap
INSTRUMENT=Orbitrap
COMMENT=DB#=CCMSLIB00010118855; origin=GNPS
NUM_PEAKS=205
COMPOUND_NAME="(2E)-3-(2H-benzo[3,4-d]1,3-dioxolan-5-yl)-1-{2-[4-(diethylamino)phenyl]-6-hydr oxy-3-azabicyclo[4.4.0]dec-3-yl}prop-2-en-1-one "
PRECURSOR_MZ=477.275
COLLISION_ENERGY=205060
PARENT_MASS=476.2677235480092
55.05447 0.0006181320373139292
61.17337 0.0004643688063631728
65.039017 0.00048482566675123965
67.054573 0.016034791519382405
75.424026 0.00042405166382977673
77.858101 0.00045719062299087845
79.054413 0.0024100413894438135
81.070053 0.004232491698709975
89.038582 0.017690931210140877
90.046402 0.00048093828594372365
91.054024 0.0035832606149359173
93.069817 0.0009798893859262344
94.064423 0.0005034927924110937
95.085533 0.0006320457814913256
96.080238 0.000708176863048421
97.100922 0.0020067929862720804
97.509903 0.0005253737427979534
104.295464 0.0004462982589460564
106.064796 0.004993648558605383
107.0849 0.0023000015703478907
107.73024 0.000424475041937526
109.101097 0.014464039495173182
117.033318 0.030497965013880645
117.06955 0.001076150172060863
117.526817 0.0005047244378154551
118.041107 0.02650753012604659
118.064934 0.0011395799103854805
119.048927 0.0007011141464327855
119.073029 0.0006064121615130517
119.085281 0.0007190307381743567
120.057137 0.0005803359189675856
120.080811 0.0005446374467005451
121.088097 0.0028120773916706283
122.05928 0.0009459614039279635
122.096474 0.004872369975194662
125.096046 0.004519234144412887
125.748352 0.00043507873909070084
130.064774 0.0010842136005675422
131.060394 0.0009552757222984474
131.073257 0.0004683524094679046
132.067825 0.005666223171683979
132.08046 0.004001250274041103
133.075455 0.0018790482644884608
134.096222 0.03725900548328534
135.043854 0.018074223108870063
136.100845 0.0008913456280283082
136.111908 0.01725179189010767
139.754654 0.00046842938730567714
144.080734 0.0006168426585312383
145.028244 0.12397756111424496
146.03598 0.058372198160660756
146.083115 0.0024511090658954925
146.096237 0.0028794907330999776
147.043762 0.024857183017580508
147.078812 0.0009688815551247533
147.091263 0.01697295891723589
147.103973 0.0046379339702582265
148.051697 0.057403278116617114
148.074814 0.024363889788674282
148.098557 0.0022722125709119844
148.111694 0.009412099468914501
149.022873 0.0019149006924310463
149.071289 0.0006376459191892817
149.107452 0.0036370681235389606
150.090698 0.0038912296994046227
152.106323 0.000725554609925584
154.122299 0.026614259898118293
158.09613 0.0030235547564913872
159.043533 0.000496276120119913
159.091537 0.0026156107052155257
159.10437 0.0005487365165619358
160.098663 0.0023928368427016387
160.111938 0.01221268791829757
161.084381 0.003551949879421915
161.106995 0.0269187072465089
161.12207 0.0011026497927140784
162.029282 0.0006031790923266028
162.1147 0.004547869900064292
162.127914 0.005602620233224374
163.038651 0.06300457048213991
164.093994 0.0007417776892361582
172.111557 0.0019863361258840133
173.07045 0.0020462056392116486
173.106812 0.014414042389539881
173.122467 0.0007892152817635191
174.054321 0.0005347650390062099
174.090164 0.0007201661612815024
174.114624 0.007810094442569606
174.128967 0.0004967572316059917
175.038696 0.33854321905306173
175.122696 0.03082977798359941
176.046509 0.04118283529698666
183.102371 0.0005149240013203239
184.111572 0.0006978810772463365
186.054321 0.004143620785001515
186.127136 0.002755498680907772
187.122086 0.005325480772783593
188.093369 0.0008897483378945268
188.112381 0.00046939161027783455
188.130035 0.0029320858407581025
189.101517 0.0011369626639012123
189.138062 0.0010595422035614259
196.110626 0.0016087983205283266
197.119827 0.0005540287429088016
198.127274 0.002519523119215885
199.122452 0.006000903565859775
200.129105 0.000944845225280261
201.101929 0.002469564502501472
201.137573 0.00839352871950754
202.048645 0.0007125838442609019
202.158966 0.000663471983761987
203.117615 0.0038461206864698824
204.125656 0.0010013277137459018
210.126923 0.0024089444552555543
211.135178 0.0029639546655959564
212.142715 0.0026443426831641464
213.136719 0.0033819058357822548
214.143738 0.0035068985998655045
215.117828 0.005250311914198655
215.153946 0.0030924114323789722
217.132843 0.01669691639098337
222.127167 0.001753882300270223
224.106186 0.002763446642657792
224.141907 0.001068625588418592
225.101364 0.001905528640682233
225.137604 0.002545522383923579
226.157761 0.003093797033458879
227.116074 0.0010416833451981841
227.152466 0.013969803287754242
228.137253 0.0030467058412014946
228.175385 0.0040401240821162625
229.132568 0.008579930553673875
230.153656 0.001021726840755639
231.147919 0.002269730035643818
237.114853 0.0005059560832198167
238.122284 0.0044889241207899284
238.158112 0.0042256791600671
239.154648 0.007996573254573714
240.12442 0.002876796508777937
240.173218 0.002812135125048958
241.16922 0.0008523371087370462
243.147339 0.004771355807577575
244.169983 0.0006907991161712578
245.163742 0.0008393855875318073
247.751068 0.0005170408918590702
250.121033 0.0011383290205216757
252.101288 0.04460330702949298
253.133026 0.009102456116474242
253.168884 0.010357868428248033
254.177002 0.010924348336416553
255.184982 0.15711804058764264
256.131927 0.004354982683065615
256.191711 0.004723725770455782
257.170227 0.0014666972320001182
257.200134 0.00825496861151687
264.101837 0.0008021090695904286
266.116913 0.002735542176465227
267.124664 0.10729650215784275
268.131683 0.0008457555036074894
268.203735 0.0006183244819083606
271.17984 0.11089333011668609
272.187927 0.009467715956705201
273.195465 0.28240395552158953
278.116241 0.004093488968152113
279.125153 0.0009285066792130279
280.095673 0.00242358948889179
280.132538 0.007174834836351275
281.132019 0.0015717334916408227
281.164276 0.013918401336581593
282.172363 0.002492927276265454
285.160339 0.000639628098511926
285.231964 0.0005859360566655417
293.126862 0.001799395446853269
295.115234 0.0005644399954675449
295.180145 0.0029986716704313962
296.163452 0.002834035319895261
298.142181 0.0056931846593638305
299.174133 0.007279428473424787
300.182434 0.0010246712430504409
301.22937 0.0005652675072236003
305.127502 0.0031603058852944003
306.107056 0.0038205447998699384
307.143555 0.0032830085587039147
308.127502 0.0010278658233180034
309.134125 0.0025019336832848476
310.144287 0.001891403207450962
311.210236 0.0006545040656614798
313.190765 0.006920904193998931
321.120819 0.0008620555607558361
321.158752 0.0007455111143681289
322.128479 0.0009181339155731708
323.138123 0.04661648917630019
328.154053 0.0021138691586137584
333.121155 0.003374631430112745
334.128754 0.0022611277622727305
335.138214 0.03444663942472306
349.153656 0.04800316794593569
405.184601 0.000771317934481391
429.216766 0.007187670890799855
430.225067 0.0008831474883055269
431.23114 0.02074100483174492
447.229218 0.0007869444355492277
448.234161 0.0020137594805905
459.257629 0.001606392763097933
477.273834 1.0
END IONS

BEGIN IONS
CHARGE=1+
PRECURSORTYPE=M+H
FORMULA=C25H34O8
ONTOLOGY=
INCHIKEY=VWQWXZAWFPZJDA-UHFFFAOYSA-N
INCHI=InChI=1S/C25H34O8/c1-23-9-7-15(26)11-14(23)3-4-16-17-8-10-25(32,24(17,2)12-18(27)22(16)23)19(28)13-33-21(31)6-5-20(29)30/h11,16-18,22,27,32H,3-10,12-13H2,1-2H3,(H,29,30)/t16-,17-,18-,22+,23-,24-,25-/m0/s1
SMILES=CC12CCC(=O)C=C1CCC1C2C(O)CC2(C)C1CCC2(O)C(=O)COC(=O)CCC(=O)O
IONMODE=positive
INSTRUMENTTYPE=LC-ESI-Orbitrap
INSTRUMENT=Orbitrap
COMMENT=DB#=CCMSLIB00010121868; origin=GNPS
NUM_PEAKS=206
COMPOUND_NAME=2203-97-6
PRECURSOR_MZ=463.233
COLLISION_ENERGY=205060
PARENT_MASS=462.2257235480092
53.039082 0.02346565827571476
55.018299 0.1651630460579403
55.051781 0.005180133854405645
55.054642 0.027531920953119314
67.054512 0.08911602297359303
69.033813 0.03559324715598943
69.066498 0.006045599101308482
69.070129 0.05740866731009604
71.049393 0.02501305317785548
73.028709 0.4407306615192317
76.833397 0.005025077923516289
79.05442 0.12815689128680602
81.033623 0.009303355853361391
81.070091 0.16026454440453775
83.049278 0.12478679809502713
85.064789 0.010804866857585874
91.054253 0.20512475673623087
93.063477 0.009119820261696438
93.069923 0.18473964843440976
95.049049 0.028090438744996282
95.085571 0.10127050931126687
97.064781 0.41535211936142274
99.043777 0.05158141227473379
101.023247 1.0
103.053818 0.025220321820166765
105.069794 0.294016106830372
107.049332 0.042861889467272124
107.085274 0.10846478806385773
109.064774 0.1901792636425486
109.101257 0.01992943372941158
111.0438 0.00845054823346993
111.080093 0.022103381168615415
112.784721 0.004847871145357024
115.05397 0.026221856557441893
117.069778 0.12268088540100945
119.034126 0.018894672721231586
119.085457 0.37066911380788886
121.06469 0.683394775564451
121.100906 0.045996234355964116
123.080353 0.23647295223328008
125.059349 0.009102416024555797
128.062057 0.06424378589623911
129.069748 0.12242140404727624
130.077301 0.012986725313671819
131.073837 0.0075819185798142496
131.085388 0.2337990285271269
131.11525 0.005635808426815183
133.064545 0.052331376675157824
133.101013 0.11139186431023844
135.080276 0.13604892172839897
135.116684 0.027967026881635364
137.059402 0.02231381421767954
137.095795 0.0340379412369666
141.069946 0.08258152302897015
142.077774 0.07022767906586713
143.085449 0.29730708985332976
144.093185 0.02213977184627312
145.065002 0.045072227584133664
145.101059 0.29404458649114756
147.080399 0.15650364697878266
147.116608 0.08695947977152983
148.087799 0.0073936363780200305
149.096024 0.0654446782589434
149.131683 0.01201683464392513
151.074997 0.005765549103681787
153.069977 0.0247915447051564
154.077515 0.032123475151495974
155.085419 0.1673718019714254
156.093491 0.02363811844374476
157.064606 0.021802762527095232
157.101089 0.229465373479107
158.072586 0.012311124471939622
159.028427 0.029550812461433793
159.080566 0.10162334066420897
159.116653 0.17533819597171021
161.059448 0.005433286394633166
161.095871 0.09408888818568739
161.132401 0.011584893122161924
163.111603 0.15802256222014777
165.069366 0.037783016628957486
166.07756 0.02410328623641283
167.085449 0.0883802984035568
168.093719 0.04142366659810452
169.10112 0.22873281331582362
170.108627 0.00916886856636552
171.080276 0.07432083920067085
171.116486 0.13951236491938673
172.123962 0.008673638909545433
173.096039 0.1628498647216113
173.132065 0.04991218771260858
175.11142 0.06834011043779567
178.078064 0.008460041453728463
179.085709 0.05904150119456355
179.100952 0.00816733382909039
180.092667 0.027759758239324084
181.10112 0.11505782953340822
182.108658 0.040376247962913156
183.079376 0.010303308387260098
183.116852 0.1991740898375077
184.08905 0.01203265667768935
184.12442 0.007202189769472968
185.09581 0.0901571127952787
185.132126 0.10762463807097765
187.111542 0.11397560242393558
189.126877 0.03960571491859564
191.086121 0.009952059237694414
192.093094 0.021986298118760187
193.100891 0.07333037988703067
194.109055 0.026119013337974464
195.116684 0.09473284495989115
196.125336 0.010657721943578627
197.097549 0.043575463190038445
197.132385 0.10170086862965366
198.103729 0.009078682973909466
199.112137 0.06180402828979637
199.147949 0.05011787415154344
200.118286 0.00840308213217727
201.127121 0.049192285176336566
203.105637 0.009653022799550654
205.100403 0.03450943784314036
205.120056 0.009641947375915701
206.108139 0.03320253785421578
207.117004 0.09112858566840182
208.123871 0.028210686201604353
209.095703 0.01992943372941158
209.132309 0.12728509722639747
210.141098 0.006833536382766641
211.111435 0.06645570621647706
211.147324 0.051518124139676914
212.117828 0.00707719570273563
213.127167 0.10087654067053779
213.162003 0.013363289717260257
215.142242 0.03117415312564277
217.101349 0.010344445675047071
218.108749 0.007441102479312691
219.116058 0.030093508219546542
219.138153 0.008246443997911492
220.124252 0.009447336360615793
221.131622 0.06370583674825563
222.140137 0.006909482144834897
223.110962 0.024291568438207047
223.14772 0.10325775675205291
224.117905 0.008301821116086261
225.126419 0.07803110611838046
225.163498 0.03967216746040536
226.134827 0.034575890384950084
227.142548 0.05350695378383937
228.149582 0.009456829580874326
229.158264 0.020423081182855244
231.115234 0.007952154169896999
231.138367 0.011599132952549721
232.123703 0.00889989399237378
233.131683 0.032009556508393586
234.139084 0.009659351613056342
235.11145 0.009959970254576523
235.146606 0.021521130326092115
236.12001 0.007222758413366454
237.127533 0.02016518203249846
237.163879 0.010341281268294226
239.142593 0.11729348290429252
239.175888 0.01008338211793744
241.117233 0.006034523677673528
241.158264 0.20262803980823696
243.174194 0.01276679904434916
247.107849 0.005525054190465642
247.147598 0.029205892125373795
249.127441 0.023997278610192553
249.162949 0.07689033748398019
251.142426 0.09365220005379492
251.17807 0.027524009936237204
252.150742 0.05249276141955287
253.125244 0.004790911823805832
253.158493 0.05255130294448048
261.126068 0.005694349951742797
263.142487 0.02410645064316567
263.178741 0.030829232789582772
265.157501 0.03679413951869373
266.167175 0.019818679493062038
267.138489 0.031210543803300475
267.173553 0.30990459313640173
268.181793 0.025865860797746942
269.153595 0.02690378621267978
269.189148 0.05809692577883961
271.171173 0.009162539752859833
273.163391 0.03415185988006898
279.172699 0.0399553818647849
281.152283 0.04712118095660016
281.188843 0.13453000648703384
283.16864 0.01023369143869753
285.184021 0.11932028542948911
287.200104 0.0313418666835435
291.173828 0.2555147698685189
294.161591 0.012958245652896223
297.184113 0.13517079885448474
299.164764 0.008376184674778096
299.199127 0.0687593943325475
309.184265 0.8929845102289449
315.195679 0.04186984795025553
327.194794 0.8352847174975871
341.373474 0.0066389253674667345
345.205505 0.41436324225115895
363.21521 0.012803189722006867
409.200317 0.03845070645380757
427.211029 0.17716564087147763
445.221222 0.30292391183962786
463.231903 0.18076040694270842
END IONS

BEGIN IONS
CHARGE=1+
PRECURSORTYPE=M+H
FORMULA=C17H14O8
ONTOLOGY=
INCHIKEY=IBXCKSUZOFKGSB-UHFFFAOYSA-N
INCHI=InChI=1S/C17H14O8/c1-23-11-5-7(3-4-8(11)18)15-14(22)13(21)12-9(19)6-10(20)16(24-2)17(12)25-15/h3-6,18-20,22H,1-2H3
SMILES=COc1cc(-c2oc3c(OC)c(O)cc(O)c3c(=O)c2O)ccc1O
IONMODE=positive
INSTRUMENTTYPE=LC-ESI-Orbitrap
INSTRUMENT=Orbitrap
COMMENT=DB#=CCMSLIB00010123146; origin=GNPS
NUM_PEAKS=130
COMPOUND_NAME=Limocitrin
PRECURSOR_MZ=347.076
COLLISION_ENERGY=205060
PARENT_MASS=346.06872354800925
56.58884 0.0006495786554146671
61.569069 0.000689088671734853
67.054932 0.0008044324290566856
68.997383 0.005185583432303092
82.380966 0.0011203001401755902
90.36615 0.0006442681693501261
91.054863 0.0009108545697900892
93.033684 0.001586985655527462
99.008057 0.0015918713027068398
100.247917 0.0007874388736501541
105.033386 0.0028710611859334993
107.049316 0.0025445725026855127
107.533867 0.0007292359463827836
109.02816 0.001133470145615652
112.015533 0.0013246476439391316
118.041344 0.0010841888349367107
119.049072 0.00539460416380343
119.24852 0.0008067690429250837
121.028267 0.015112156403585895
122.035454 0.00081016775400639
123.043671 0.0010708064100540672
124.014999 0.00102980945763581
124.052002 0.004545563651804599
131.04924 0.0015617077418602463
133.02887 0.0015727535528744917
134.03627 0.0168155479136481
135.04364 0.007378814176958566
137.024185 0.0007991219429921445
137.059799 0.011944132836923258
139.002762 0.009752813867251018
142.025803 0.003896197415832513
144.057343 0.0006776180218354442
146.036667 0.0068734683230568345
147.044052 0.018130636682671057
148.052124 0.0015867732360848803
149.023163 0.004547475426787834
151.002838 0.0008917368199577413
151.038986 0.016230119929893087
151.050919 0.001058910921269495
153.018494 0.001317850221776519
154.025894 0.0013826381517639205
155.034149 0.0010916235154270683
159.044037 0.001125185787354968
161.023117 0.001270693105523394
161.05925 0.005210011668199981
162.031036 0.004259647082089706
163.039017 0.0039743677707025585
164.046692 0.009288252546324963
165.053848 0.0011797775840984505
166.651764 0.0008806910089434958
166.996964 0.0015956948526733093
167.033051 0.0013123273162693964
168.005264 0.012542943245560911
168.041504 0.0032593639269727446
169.013168 0.03946625791501396
169.049805 0.0011292217567640192
170.021042 0.0010327833298319528
171.028336 0.0015682927445802772
171.044312 0.00350555806092487
173.023331 0.0039437793709708015
173.060242 0.0036780426483011648
174.067413 0.0009044819865126399
175.039124 0.0056809455724034855
177.053543 0.0013539615270153984
179.032852 0.0007449549851338254
183.028702 0.01575642457293602
185.008224 0.007808113870416068
186.015839 0.010781773647116502
187.039307 0.0038250369025676625
188.046722 0.0016666429464955784
189.055603 0.0026616156155479984
191.033768 0.003916164843435188
192.041458 0.0009291226418521106
193.012985 0.0011438786983021527
195.027695 0.000989662182987879
199.038651 0.004908163640291465
203.034088 0.00818175966991718
205.04863 0.004088224591926319
212.046524 0.0009518515222083465
215.034119 0.00646710992939815
216.042175 0.010290022637539996
217.049713 0.009836931966513349
219.029083 0.0013811512156658488
227.033356 0.00313085016421085
229.048447 0.0010765417350037715
230.058197 0.001157473542627378
231.028366 0.0017148621599616116
231.064987 0.0017571336290353587
233.043869 0.021336470910113228
241.049637 0.0013558733019986332
243.028946 0.010302980223537477
244.036362 0.04827890332939862
245.043945 0.036558873004398994
246.050934 0.0010599730184824032
247.023911 0.003292713779458063
247.060364 0.0009943354107246752
255.02887 0.001370317824094185
257.044861 0.0030016991431212107
258.051483 0.007473553248349979
259.06015 0.006936132058618419
260.031158 0.0013376052299366118
261.039185 0.09196041266300271
269.045074 0.001224173247598014
271.023804 0.005133965507755752
272.031281 0.0961856477953942
273.039001 0.1146663517194398
275.020813 0.0013308078077739992
275.053955 0.0057894919075627055
276.062195 0.0010455284963868515
283.022888 0.0015706293584486753
285.039581 0.0048605816851531765
286.046417 0.007897754875185521
287.054718 0.0333810781433776
289.034088 0.1499371132240237
297.035248 0.0009187140891656101
299.018188 0.002990653332106965
300.026123 0.07489760851818958
301.033875 0.31547303579458785
303.048706 0.018717339183081556
304.057434 0.007158960053886564
313.033936 0.003429724319923223
314.041107 0.0032366350466165087
315.049561 0.08270338577473725
316.986847 0.0015077532034445088
317.028992 0.044229126656579576
331.044342 0.036473905227366335
332.052277 0.3557328927470868
345.409454 0.0009705444331555311
347.075775 1.0
348.751068 0.0008405437342955651
END IONS

BEGIN IONS
CHARGE=1+
PRECURSORTYPE=M+H
FORMULA=C17H14O8
ONTOLOGY=
INCHIKEY=IBXCKSUZOFKGSB-UHFFFAOYSA-N
INCHI=InChI=1S/C17H14O8/c1-23-11-5-7(3-4-8(11)18)15-14(22)13(21)12-9(19)6-10(20)16(24-2)17(12)25-15/h3-6,18-20,22H,1-2H3
SMILES=COc1cc(-c2oc3c(OC)c(O)cc(O)c3c(=O)c2O)ccc1O
IONMODE=positive
INSTRUMENTTYPE=LC-ESI-Orbitrap
INSTRUMENT=Orbitrap
COMMENT=DB#=CCMSLIB00010123148; origin=GNPS
NUM_PEAKS=45
COMPOUND_NAME=Limocitrin
PRECURSOR_MZ=347.076
COLLISION_ENERGY=205060
PARENT_MASS=346.06872354800925
73.942734 0.004559422324214489
92.361107 0.003860196992279606
95.474037 0.0032779473267774387
98.045921 0.00321354499357291
100.576851 0.003209601993580796
121.028122 0.012089237975821523
134.036575 0.007265634652135398
135.0448 0.0038339103256655126
137.059464 0.01596652130140029
139.002975 0.0053611656559443355
147.044327 0.007866284984267431
151.039093 0.015085917969828165
168.004196 0.0044569043244195245
169.013351 0.03684733492630533
175.038666 0.00471188499057623
183.028946 0.013055272973889455
186.016785 0.00545842632241648
189.055542 0.004161179325010975
203.033478 0.004116491991767016
217.04982 0.0057239216552188235
233.044113 0.019659797960680403
243.029205 0.004216381324900571
244.036621 0.04941367590117265
245.044189 0.033725793265881744
258.049805 0.004594909324143514
261.039581 0.08445248816442835
271.513947 0.0035079556596507556
272.031403 0.08679331582641336
273.039154 0.10098548713136236
283.025055 0.0039061986588542694
286.045868 0.005859297988281404
286.93338 0.004046832325239669
287.054688 0.02801501494396997
289.034149 0.14543098304247137
300.025787 0.0671427181990479
301.034149 0.29951290806764086
303.050415 0.0228128836210409
304.054321 0.0057147213219038906
315.050659 0.0754795345157076
317.027618 0.042696118247941096
331.045044 0.0328964489342071
332.052338 0.3454291429758084
347.075775 1.0
358.345276 0.003932485325468363
366.004578 0.0037524216591618234
END IONS

BEGIN IONS
CHARGE=1+
PRECURSORTYPE=M+H
FORMULA=C22H23ClN2O6
ONTOLOGY=
INCHIKEY=ZXCTXNAJJZYGNM-UHFFFAOYSA-N
INCHI=InChI=1S/C22H23ClN2O6/c1-13-18(21(27)31-10-9-30-15-7-5-4-6-8-15)19(24-22(28)25(13)2)14-11-16(23)20(26)17(12-14)29-3/h4-8,11-12,19,26H,9-10H2,1-3H3,(H,24,28)
SMILES=COc1cc(C2N=C(O)N(C)C(C)=C2C(=O)OCCOc2ccccc2)cc(Cl)c1O
IONMODE=positive
INSTRUMENTTYPE=LC-ESI-Orbitrap
INSTRUMENT=Orbitrap
COMMENT=DB#=CCMSLIB00010121959; origin=GNPS
NUM_PEAKS=85
COMPOUND_NAME="2-phenoxyethyl 6-(3-chloro-4-hydroxy-5-methoxyphenyl)-3,4-dimethyl-2-oxo-1,3,6 -trihydropyrimidine-5-carboxylate "
PRECURSOR_MZ=447.132
COLLISION_ENERGY=205060
PARENT_MASS=446.12472354800923
51.14954 0.0021580787436584156
53.03907 0.01820280347501711
55.165039 0.002434217747139165
56.04998 1.0
58.029308 0.004600685523814717
67.018333 0.0027390192800951316
73.028778 0.0022755252058983292
73.959579 0.0023104795101363987
74.060364 0.002448898554919154
75.055557 0.04790557304435911
82.029121 0.014915001618384285
83.277382 0.0019133986139919284
91.054443 0.029882434693125678
91.275238 0.002073489327402287
93.070107 0.05146881481838792
93.769913 0.0019833072224680675
94.028809 0.009290854066478893
95.049133 0.008851828005248738
98.060043 0.049259702790541926
102.05497 0.0025083208721238723
103.054108 0.01590211117006737
104.290993 0.0022454645042535894
105.045082 0.0027872562199436676
107.719231 0.0020301459901470808
111.043854 0.0030333345217796776
112.039146 0.0028354931597922035
115.054398 0.014648649820090197
116.062073 0.004978192009585869
121.064743 0.06469482445598869
130.113525 0.0020546140031137295
132.185883 0.00239646709856205
133.028198 0.002289506927593557
137.015625 0.0024901446339200763
143.048965 0.007810888825039027
144.057312 0.00831073537564342
149.014801 0.0038533624992047894
150.995407 0.0026320591091266387
151.036072 0.0027103567506199145
151.050079 0.08137292118014121
161.061066 0.0023244612318316267
165.009918 0.005032021638112495
167.99733 0.00963130898975769
169.060837 0.05546409179279927
171.020676 0.010880575823226296
174.735703 0.002091665565606083
177.010544 0.021325621015646244
178.990204 0.017426817920931967
183.020981 0.01035975669007906
185.000153 0.003284306426209017
188.071259 0.005006155452976324
189.077972 0.002982301237592096
191.997162 0.008067453418146457
192.019867 0.0037659767386096156
194.012604 0.014316583929828534
194.478546 0.0022692334311354766
201.05484 0.002968319515896868
202.085785 0.0030018756479654146
203.094742 0.004279105924824477
205.005875 0.003837982605340039
206.036819 0.015031748994539438
207.020386 0.004842569309142159
209.037018 0.05312634792535718
211.015854 0.04297911340504559
212.010666 0.06061355989315168
219.992554 0.041044742208510815
220.015915 0.003913483902494269
223.039658 0.010529634608676078
224.046677 0.03648040916110369
235.015289 0.3408561986914507
238.062393 0.021809388586301128
251.034485 0.002505524527784827
252.041733 0.0048956998515840245
266.057648 0.11362735495886228
269.055359 0.002359415536069696
277.037079 0.002490843720004838
279.041656 0.012768807338166814
284.066589 0.0021636714323365067
289.081543 0.004901292540262115
289.117889 0.15232316792257483
309.063049 0.2897837656831225
310.084045 0.01809724147621814
353.089142 0.10600871480713264
390.111572 0.0040204440734627625
404.125336 0.30537198720113196
447.13147 0.07517202760830766
END IONS

BEGIN IONS
CHARGE=1+
PRECURSORTYPE=M+H
FORMULA=C28H30ClNO6
ONTOLOGY=
INCHIKEY=FNOWZTMNFWPNII-UHFFFAOYSA-N
INCHI=InChI=1S/C28H30ClNO6/c1-6-36-28(32)24-15(2)30-20-11-17(16-7-9-19(29)10-8-16)12-21(31)26(20)25(24)18-13-22(33-3)27(35-5)23(14-18)34-4/h7-10,13-14,17,25,30H,6,11-12H2,1-5H3
SMILES=CCOC(=O)C1=C(C)NC2=C(C(=O)CC(c3ccc(Cl)cc3)C2)C1c1cc(OC)c(OC)c(OC)c1
IONMODE=positive
INSTRUMENTTYPE=LC-ESI-Orbitrap
INSTRUMENT=Orbitrap
COMMENT=DB#=CCMSLIB00010122256; origin=GNPS
NUM_PEAKS=60
COMPOUND_NAME="ethyl 7-(4-chlorophenyl)-2-methyl-5-oxo-4-(3,4,5-trimethoxyphenyl)-1,4,6,7,8-p entahydroquinoline-3-carboxylate "
PRECURSOR_MZ=512.183
COLLISION_ENERGY=205060
PARENT_MASS=511.1757235480092
51.673889 0.001082252554156829
53.039139 0.0019244578876932619
57.766762 0.0011162535769075933
60.083889 0.00110231315757978
62.10807 0.001009830375697701
66.739273 0.0014375632419023165
82.065224 0.0012298169928951462
82.389328 0.0015099854203614444
88.338913 0.0010628719711888934
94.065193 0.005196716317226823
98.818771 0.0011182936382726392
106.065033 0.0013695611964007878
109.603653 0.0010343111120782514
112.075706 0.0135854486502954
117.057297 0.0017075313625433853
122.059998 0.051490808843530016
124.075821 0.0017949139910128497
125.015091 0.00440925263031912
132.044296 0.00715347517653331
132.080856 0.006710101839863343
133.297089 0.0012614379440533572
134.059784 0.002807124438303104
150.054871 0.29821073017876376
152.071014 0.0019132375501855095
153.461151 0.0013015591508992591
158.060059 0.008256128344340597
160.039246 0.03037277361303028
160.075333 0.0024028522777965163
169.819763 0.0012376372281278222
176.070312 0.02119079741918637
178.049774 0.8093950266024001
186.054962 0.006719622126233557
191.057617 0.0023617110402680912
194.080841 0.0016504096443221011
204.065445 0.06015392943019726
206.080124 0.008659380474164664
215.025818 0.00507873276828167
229.073944 0.0025752374631428914
230.077454 0.0013447404497927298
234.090591 0.001999600147972451
238.970596 0.0015960080079208783
244.096344 0.005056632103493673
270.067841 0.0254181445777889
271.077637 0.0023776915209609505
272.083679 0.0058318554222111
274.061829 0.0024018322471139933
285.091492 0.008087823281724315
298.0625 0.03829943204691597
300.078217 0.0014229428021194878
316.072998 0.7949479920356004
324.022705 0.009327500571217182
343.4617 0.001563027015852637
344.104248 1.0
376.070984 0.0014814245612508024
378.033752 0.0015269859317368266
408.096222 0.0013250198565972864
436.092773 0.006061022315551252
466.141754 0.03251041791337084
494.114899 0.0013600409100305738
512.123108 0.027371503334820312
END IONS

BEGIN IONS
CHARGE=1+
PRECURSORTYPE=M+H
FORMULA=C20H20ClNO5S
ONTOLOGY=
INCHIKEY=SVHQWHSBTPUXGM-UHFFFAOYSA-N
INCHI=InChI=1S/C20H20ClNO5S/c1-24-16-11-13(19(28)22-7-9-26-10-8-22)12-17(25-2)18(16)27-20(23)14-5-3-4-6-15(14)21/h3-6,11-12H,7-10H2,1-2H3
SMILES=COc1cc(C(=S)N2CCOCC2)cc(OC)c1OC(=O)c1ccccc1Cl
IONMODE=positive
INSTRUMENTTYPE=LC-ESI-Orbitrap
INSTRUMENT=Orbitrap
COMMENT=DB#=CCMSLIB00010116862; origin=GNPS
NUM_PEAKS=33
COMPOUND_NAME="2,6-dimethoxy-4-(morpholin-4-ylthioxomethyl)phenyl 2-chlorobenzoate "
PRECURSOR_MZ=422.082
COLLISION_ENERGY=205060
PARENT_MASS=421.0747235480092
50.01577 0.00566009002980198
51.02346 0.02233772916738514
55.018299 0.0021002045568239017
55.34108 0.0010380900383267957
56.07378 0.0009815162624418714
75.02346 0.007508812528068924
75.329018 0.0012089738408285191
79.018112 0.0037268943593233
86.006172 0.03342270181628945
86.999817 0.034293007985039724
93.034073 0.001488742787327939
94.041397 0.001539891680593761
98.197403 0.0010194904407755878
104.279167 0.0014341064695212657
104.711273 0.0011977365839746642
110.999733 0.002734140840027574
111.043968 0.0024590217929159556
114.994598 0.0013469208559999783
120.615677 0.0013070092195880112
129.010147 0.005247023967518903
130.03215 0.018573635612959424
136.194885 0.0015178046585017017
137.00589 0.0025903814506213624
138.994629 1.0
150.013626 0.0016197149534176955
154.971588 0.01262447683788242
157.005005 0.008618588515291
164.424561 0.0012186611312197733
209.005661 0.002385010894326774
217.557861 0.0012023864833624663
242.93309 0.0010423524460989476
335.013733 0.03256053297146783
422.082092 0.3822414917497223
END IONS

BEGIN IONS
CHARGE=1+
PRECURSORTYPE=M+H
FORMULA=C17H18N4O3
ONTOLOGY=
INCHIKEY=VQEDFYBLQJNFSJ-UHFFFAOYSA-N
INCHI=InChI=1S/C17H18N4O3/c1-3-4-11-15-14(9-5-6-13(23-2)12(22)7-9)10(8-18)16(19)24-17(15)21-20-11/h5-7,14,22H,3-4,19H2,1-2H3,(H,20,21)
SMILES=CCCc1[nH]nc2c1C(c1ccc(OC)c(O)c1)C(C#N)=C(N)O2
IONMODE=positive
INSTRUMENTTYPE=LC-ESI-Orbitrap
INSTRUMENT=Orbitrap
COMMENT=DB#=CCMSLIB00010121489; origin=GNPS
NUM_PEAKS=87
COMPOUND_NAME="6-amino-4-(3-hydroxy-4-methoxyphenyl)-3-propyl-4H-pyrano[2,3-c]pyrazole-5-carb onitrile "
PRECURSOR_MZ=327.145
COLLISION_ENERGY=205060
PARENT_MASS=326.1377235480092
58.257641 0.002385928726455068
67.054558 0.003104454649391049
68.049622 0.004925072539418544
82.065208 0.006175096314173347
84.95974 0.0032544997685923865
85.076088 0.013585423222335167
92.049156 0.011478451618902303
94.064392 0.00311079458400519
97.039467 0.009798368946154936
98.977402 0.003998385429984932
98.984077 0.07233125735696579
106.040024 0.003762751193492691
107.048508 0.004597509251021258
109.064796 0.002644809389865826
109.067719 0.0029343330705782654
109.075653 0.029350727296165818
111.055008 0.00413046740111287
112.075119 0.004123070810729705
118.039223 0.003871586737702112
123.043488 0.01400914218571359
124.052094 0.003564099908916273
125.070374 0.005563292623908739
127.087013 0.006385370812209024
133.052322 0.0032354799647499634
136.213531 0.003341145541652314
136.824188 0.0030685283532442503
137.047882 0.002896293462893419
137.059311 0.015513820000803058
137.070557 0.0723545037838843
139.086243 0.014375801737564746
144.044296 0.022957959893573632
145.027542 0.004055444841512201
147.067627 0.005911989027686494
148.074905 0.005749264039256875
150.055145 0.012410422007181033
151.074661 0.021073942657404726
152.081757 0.004515090101037424
157.966904 0.003558816630071155
159.054749 0.00627864857953765
161.046448 0.04329330016843093
161.070374 0.004059671464588295
170.023254 0.014050351760705508
172.062241 0.003529230268538497
174.053925 0.019242758209687
174.091293 0.0029026333975075602
174.991699 0.01077154890942558
175.06131 0.006552322423714737
175.087387 0.003969855724221298
176.070282 0.015660695152697326
177.054596 0.016559909212136327
178.096863 0.003754297947340503
184.075226 0.0026839056533196955
186.04129 0.016166833266059583
187.049713 0.015298262223922264
189.065262 0.021076055968942773
192.06488 0.01666980141211477
200.056519 0.0033242390493479377
201.064621 0.02323269039351974
201.101379 0.00899425390592805
202.049088 0.006563945637173996
202.085327 0.0060662607699639255
203.045532 0.004591169316407117
203.092499 0.14044328822822075
204.051163 0.0212704806304431
212.06958 0.004617585710632704
214.085587 0.01640352415832085
217.059692 0.031771525662998665
217.096878 0.0038832099511613705
218.068542 0.009909317801902403
218.104706 0.018085720142606263
219.075897 0.1181594747152841
226.08551 0.004007895331906143
228.102402 0.003975139003066415
229.072464 0.031323503616932695
229.096619 0.055960489527484676
231.07576 0.0054217007508595896
233.127335 0.004153713828031387
244.096191 0.10724950390011645
245.091309 0.022394762368684103
245.126999 0.002827610837906892
246.099319 0.05640639826201259
256.19455 0.003079094910934485
261.122681 1.0
262.13028 0.022441255222521137
285.108734 0.005579142460444091
300.132751 0.024137187731803858
327.144196 0.46637721342967214
END IONS

BEGIN IONS
CHARGE=1+
PRECURSORTYPE=M+H
FORMULA=C11H15N3O3S
ONTOLOGY=
INCHIKEY=IQOMOUXYZRGOAZ-UHFFFAOYSA-N
INCHI=InChI=1S/C11H15N3O3S/c1-12-11(18)14-13-10(15)7-4-5-8(16-2)9(6-7)17-3/h4-6H,1-3H3,(H,13,15)(H2,12,14,18)
SMILES=CN=C(S)NN=C(O)c1ccc(OC)c(OC)c1
IONMODE=positive
INSTRUMENTTYPE=LC-ESI-Orbitrap
INSTRUMENT=Orbitrap
COMMENT=DB#=CCMSLIB00010121941; origin=GNPS
NUM_PEAKS=68
COMPOUND_NAME="(3,4-dimethoxyphenyl)-N-{[(methylamino)thioxomethyl]amino}carboxamide "
PRECURSOR_MZ=270.091
COLLISION_ENERGY=205060
PARENT_MASS=269.08372354800923
51.0233 0.001638020845078045
53.03896 0.021344481977411067
55.381008 0.0008514822014062084
58.298141 0.000764590126474572
59.024132 0.001698153768906167
64.527634 0.0008090884901073823
65.038788 0.004430894492275174
66.046654 0.015075324003710202
67.054337 0.0010330836313671371
68.025917 0.0008529855245019115
68.997398 0.009456503601210475
69.033653 0.004070698278544723
71.566498 0.0009927945724022952
73.628563 0.0008313376719237876
73.964058 0.0009185304114745646
74.005966 0.0017258149138671033
77.03862 0.004760723579472424
79.017899 0.0019777718647069347
79.054298 0.05282496959529039
81.033379 0.004051756407538865
81.069923 0.014134544410419232
82.04126 0.003377666331425616
83.049026 0.0015348928807128158
85.028091 0.0013277349581249352
91.054047 0.0037447778313963015
92.025574 0.0043467083989158035
92.392487 0.0009434855748632352
94.041138 0.03437979654025223
95.04908 0.008923425231474174
97.028267 0.001378847943378839
98.035942 0.00863538852633747
105.033096 0.005429401692441141
107.012497 0.0014446934949706326
107.048714 0.007643495947792595
109.020538 0.0011768013193163489
109.028191 0.018021837271288182
109.064499 0.034361756663103794
110.035439 0.0018121056595604584
111.007301 0.007030741453984032
121.027748 0.003738163209775208
122.026192 0.0016867285133788238
122.035843 0.041658886969646404
124.051559 0.026728783976981117
125.059334 0.003692762852284976
126.0308 0.02530754232230345
137.023132 0.0015189576558983634
137.059265 0.003305206158212729
139.074814 0.026978636275486963
141.053894 0.0066191315903805364
152.070099 0.008706044711835512
154.025513 0.004861145562265388
154.784439 0.0008611034692187079
155.069702 0.037179886138308735
164.505051 0.0009083078144237837
165.054092 1.0
180.063263 0.0009564141534862815
181.072754 0.004663608907490006
195.883743 0.0012378362370018927
197.026062 0.0010790853180956505
197.091354 0.04723982363013441
214.052292 0.00345343381544905
239.047211 0.008515724007919506
244.391022 0.0008977845527538624
246.896194 0.0008797446756054258
253.952454 0.000971447384443312
256.049591 0.0009446882333397976
270.089661 0.0017886538192674907
278.049896 0.0007994672222948828
END IONS

BEGIN IONS
CHARGE=1+
PRECURSORTYPE=M+H
FORMULA=C23H26N2O2
ONTOLOGY=
INCHIKEY=QQBFAVBJOBJSKG-UHFFFAOYSA-N
INCHI=InChI=1S/C23H26N2O2/c1-4-27-16-9-7-8-15(12-16)22-21-19(13-23(2,3)14-20(21)26)24-17-10-5-6-11-18(17)25-22/h5-12,22,24-25H,4,13-14H2,1-3H3
SMILES=CCOc1cccc(C2Nc3ccccc3NC3=C2C(=O)CC(C)(C)C3)c1
IONMODE=positive
INSTRUMENTTYPE=LC-ESI-Orbitrap
INSTRUMENT=Orbitrap
COMMENT=DB#=CCMSLIB00010115189; origin=GNPS
NUM_PEAKS=54
COMPOUND_NAME="11-(3-ethoxyphenyl)-3,3-dimethyl-2,3,4-trihydro-5H,10H,11H-benzo[1,2-f]benzo[b ]1,4-diazepin-1-one "
PRECURSOR_MZ=363.207
COLLISION_ENERGY=205060
PARENT_MASS=362.1997235480092
55.054649 0.003141395598524844
81.069771 0.0006507534153765955
82.409279 0.0006177842105126884
83.043808 0.001123542169943305
83.049316 0.028693737663519056
92.049744 0.0011359703518815318
107.048607 0.0006574853472598016
108.068047 0.0007436195526372343
119.049393 0.0006312480742791007
119.060013 0.0005720415964344927
123.706383 0.0004945380729586064
130.065247 0.00705765381817052
133.07579 0.0129273805794122
135.081039 0.0006388430743524615
147.043976 0.002718837412625134
148.568649 0.0005939635284644204
156.067474 0.0008126650078496051
157.075836 0.10118732290919573
158.083954 0.0021402364979454663
159.091644 0.007045053022594262
161.095551 0.0010253250099037075
171.092316 0.0008238848943216154
173.107208 0.005504476303168237
175.075195 0.0007898800076295228
183.09169 0.003856188673610913
185.070618 0.13237187536950107
190.072952 0.0008130102351256671
197.10759 0.0022583042263586203
198.114761 0.0007627796664586672
199.088318 0.001287179898796624
199.122726 0.0029019804825759477
208.098831 0.0023320102497978263
209.107086 0.0008254384170638938
211.086349 0.012029617048013346
213.126953 0.000983379895862192
215.117538 0.0006027668240039978
218.975693 0.0005775652328514824
223.122375 0.018690949953264858
225.101669 0.002915616959980391
229.699524 0.0006455750062356677
232.098236 0.0008038617123100279
240.125946 0.0005858506874769669
241.133041 1.0
242.134445 0.0007864277348689043
264.1362 0.0008304442125667907
265.133911 0.0006491998926343171
301.12915 0.0006785442110995748
307.143433 0.0007475896663119456
315.148132 0.0029000817325576076
329.164429 0.0006447119380455131
345.198334 0.0013280893310099538
347.177002 0.0006906271657617397
361.190277 0.0006806155747559459
363.206055 0.373589250313078
END IONS

BEGIN IONS
CHARGE=1+
PRECURSORTYPE=M+H
FORMULA=C21H27NO4
ONTOLOGY=
INCHIKEY=IWFAKKQEWNYNRB-UHFFFAOYSA-N
INCHI=InChI=1S/C21H27NO4/c1-5-25-19-11-14-9-10-22-21(17(14)13-20(19)26-6-2)16-8-7-15(23-3)12-18(16)24-4/h7-8,11-13,21-22H,5-6,9-10H2,1-4H3
SMILES=CCOc1cc2c(cc1OCC)C(c1ccc(OC)cc1OC)NCC2
IONMODE=positive
INSTRUMENTTYPE=LC-ESI-Orbitrap
INSTRUMENT=Orbitrap
COMMENT=DB#=CCMSLIB00010115000; origin=GNPS
NUM_PEAKS=128
COMPOUND_NAME="1-(6,7-diethoxy(1,2,3,4-tetrahydroisoquinolyl))-2,4-dimethoxybenzene "
PRECURSOR_MZ=358.201
COLLISION_ENERGY=205060
PARENT_MASS=357.19372354800925
51.02346 0.0013556645672757185
53.039089 0.01149142945793862
55.018311 0.0014007631889415774
65.039017 0.018791393018252313
67.054604 0.009835708727846055
73.972023 0.0009933723065599855
77.038757 0.0015168169753617211
78.046654 0.010449951954935052
79.054527 0.005183334916796049
81.033707 0.0024175867787678096
81.07045 0.0013637823191755731
82.041481 0.001564320856849759
89.038773 0.0012609574617774148
91.054314 0.2667890142162882
93.033386 0.002129256257584085
93.069893 0.021892674901474545
95.049133 0.01136936252196303
95.085739 0.004856520238457459
103.054024 0.0025162024314771543
105.033737 0.0010547064320255534
105.044762 0.001546582065661188
105.070129 0.0024046585072235965
106.041077 0.01746549354127606
106.06456 0.0011536227422126706
107.049278 0.004135844264237034
108.05687 0.03828482124710317
109.064453 0.007244341926925801
111.044022 0.001893540795010529
118.064857 0.023881824774416693
118.681107 0.0013322132840094718
119.049072 0.04231513473664209
119.085732 0.0011343806636352376
120.081848 0.0009043776931393572
121.06469 0.798305734981257
121.327782 0.0010763537704251657
122.059921 0.008653523525245005
123.043907 0.0327945150455015
123.080261 0.2250105530774698
124.051987 0.0017378002215244297
125.059647 0.00200298011691968
130.041336 0.00450986216658589
130.064636 0.0013400303784315542
131.049026 0.006063359354235843
132.080856 0.0012943304418101505
133.065018 0.001165348383845794
134.060013 0.0067079689865798525
135.067413 0.0015510919278277737
136.040054 0.0015120064557173627
136.051804 0.03688255477077273
136.075485 0.011448435438617168
137.047089 0.0016641391394701935
137.059555 0.09116265449284496
139.075195 0.20505140641554953
145.06485 0.007128889455461203
146.059845 0.10818978943152886
147.043808 0.027235959596445508
147.067139 0.020003042653675057
147.079865 0.003318356582173898
148.075851 0.0012630620641218217
149.059296 0.004312931518644973
149.070908 0.02923563248110969
150.05481 0.03749529471047286
150.066925 0.0027104271621181198
150.09082 0.0017023226391472872
151.075195 1.0
160.075714 0.001729682469624575
161.059387 0.001893540795010529
161.083069 0.01319525538447477
162.054718 0.017822674624869667
162.068649 0.0014401493185297609
162.090652 0.001847540200911353
163.06279 0.005108771862308496
164.069916 0.011630633870147239
165.090805 0.03753498149753882
165.106033 0.0018325073270227333
165.336578 0.0009708229957270559
166.086166 0.022954597112966636
174.067535 0.007420827866378196
174.091431 0.015449284495334397
175.074905 0.018846713994162434
175.098907 0.13238850718751766
176.069778 0.002110014179006652
177.07811 0.0014822413654178958
178.086029 0.060755961135811797
179.0923 0.005041725244765253
179.108337 0.007291545150936067
190.086197 0.006505626504039032
191.093277 0.016802543802787936
192.101898 0.010322473184359558
193.121796 0.00859008479743503
203.106323 0.019778150860301307
207.080917 0.001561314282072035
207.124863 0.030253057385891468
208.089157 0.0011259622542576105
210.066315 0.0012931278118990608
211.076492 0.0012077410882117014
217.906433 0.0010255426566816313
220.132751 0.0962500796742316
223.074707 0.0017065318438361009
224.083344 0.00478887230595867
225.090454 0.0023475335864468418
226.063416 0.0012639640365551387
227.105896 0.002130759544972947
236.08374 0.0011349819785907824
239.106308 0.003912756415729918
240.077698 0.0012453232729332504
241.085785 0.005660177676543064
251.071594 0.0010056992631486536
252.077637 0.002149400308594835
253.085846 0.016359675338029202
255.065155 0.0013081606857876806
255.100494 0.0024193907236344436
267.100464 0.007704648525395335
268.10965 0.0015360590539391541
269.080566 0.0068619056151993174
269.112549 0.0014518749601628842
281.117371 0.007097921735250646
283.096924 0.0018580632126333867
296.140106 0.004021293765205752
297.112061 0.0017922192250012328
297.148529 0.001987045270597743
312.134003 0.0017735784613793443
313.143707 0.002131360859928492
329.171448 0.0017798922684125647
341.138855 0.0014263190745522308
341.17392 0.07385199955262167
358.200439 0.8545422129111943
371.209717 0.0012194667298448248
END IONS

BEGIN IONS
CHARGE=1+
PRECURSORTYPE=M+H
FORMULA=C19H23NO4
ONTOLOGY=
INCHIKEY=YHLCCQHFWTVUQJ-UHFFFAOYSA-N
INCHI=InChI=1S/C19H23NO4/c1-2-14-3-4-17-16(11-14)15(12-18(21)24-17)13-20-7-5-19(6-8-20)22-9-10-23-19/h3-4,11-12H,2,5-10,13H2,1H3
SMILES=CCc1ccc2oc(=O)cc(CN3CCC4(CC3)OCCO4)c2c1
IONMODE=positive
INSTRUMENTTYPE=LC-ESI-Orbitrap
INSTRUMENT=Orbitrap
COMMENT=DB#=CCMSLIB00010115384; origin=GNPS
NUM_PEAKS=104
COMPOUND_NAME="4-[(1,4-dioxa-8-azaspiro[4.5]dec-8-yl)methyl]-6-ethylchromen-2-one "
PRECURSOR_MZ=330.17
COLLISION_ENERGY=205060
PARENT_MASS=329.16272354800924
53.03915 0.01145797996158264
53.56002 0.0011955114582011068
55.018291 0.006795352587422052
56.050011 0.010846292078973639
58.98867 0.0012401828075456543
60.541592 0.001161455082958234
63.814442 0.0015002496730366832
68.049797 0.0013653510438279013
70.065598 0.012035611468948769
71.049606 0.04438164900968926
80.049873 0.008114705410142696
82.065498 0.017535052634791375
82.396187 0.001383484957918262
83.049538 0.010672914168646285
84.044693 0.021562108434614192
87.044312 0.012135569141739537
91.054497 0.010013016611992179
92.374573 0.0021800503061314303
94.065224 0.005935981975773975
96.044724 0.0014856540836468805
98.060059 0.019812406870188155
99.044296 0.019034417726652916
103.054237 0.0018846001936348193
105.070107 0.002164570135566488
112.07579 0.1450407946723445
115.054482 0.0018363905195897135
115.075546 0.003064189190683414
117.069878 0.020629759876017104
119.049088 0.002539190263238089
119.085716 0.002251259090730164
128.062225 0.008062515120809462
129.069885 0.00848313346958832
131.049118 0.005285814812046403
131.075287 0.0020823040862785096
131.085709 0.036521260687399186
133.064804 0.011193047899628343
134.095703 0.003114168027078799
135.08049 0.002770950531124652
141.070099 0.012890559174721147
142.087097 0.002210568356673745
143.085449 0.019282985036867133
144.056229 0.0015511130906072075
145.064911 0.011089551902137016
145.101028 0.020286542380062954
147.080582 0.002749278292333733
155.322159 0.001468847041319229
156.101624 0.005964730863966011
157.064362 0.00198278870407531
157.101028 0.0023565242505717713
159.068359 0.00816910715241378
159.080582 0.19543848025415786
160.051834 0.00943361594227577
160.075836 0.01052607369357312
160.111893 0.004604687307188947
161.059998 0.01478665892363278
161.096085 0.014739333830762815
162.091431 0.030619335086868083
168.081589 0.0021455516403009875
169.087875 0.0030142103542880293
170.09671 0.007659588395533396
171.043304 0.0023459092764700966
171.080948 0.025163680689194886
172.075531 0.001853197561917365
172.111755 0.002540959425588368
173.06163 0.0015617280647088822
173.096207 0.08040002529902161
174.091537 0.027801944044048604
175.075455 0.28413056948893767
183.080261 0.0014874232459971596
185.082718 0.0029925381154971105
185.098969 0.0015984381834771735
186.091354 0.009964364647359503
187.075455 0.08209709428352684
188.107086 0.06483537723185359
189.090836 0.027340634961213327
191.797058 0.0016125914822794065
196.112366 0.002293718987136863
198.091385 0.0018368328101772834
199.074982 0.007595013969748208
199.097092 0.0018651394077817492
200.107452 0.011364656647605416
201.091644 0.024030089913253547
210.09082 0.002079650342753091
211.07692 0.0015829580129122314
211.099503 0.007686125830787582
212.106506 0.0077692764612507
214.086105 0.006268584497626448
214.122589 0.03908212318942819
215.106201 0.001661243446912082
216.10202 0.24138849168736956
224.144394 0.0018868116465726682
226.084229 0.0015590743211834634
228.101822 0.16306457840640048
229.110886 0.001998268874640252
238.085968 0.001829756160776167
240.102646 0.006747585203964516
240.138199 0.05493779846321713
242.117294 0.05734739758429727
244.133575 0.01017002977057945
256.132935 0.0014237334013871116
258.148773 0.005724124784328052
268.133087 0.06729362831756641
286.143677 0.10145571101086841
330.16983 1.0
END IONS

BEGIN IONS
CHARGE=1+
PRECURSORTYPE=M+H
FORMULA=C20H21N5O4S
ONTOLOGY=
INCHIKEY=NJWNAPZNQCBEIO-UHFFFAOYSA-N
INCHI=InChI=1S/C20H21N5O4S/c1-10-13(23-19(29-10)12-6-7-14(27-4)15(8-12)28-5)9-30-20-24-16-17(25(20)3)21-11(2)22-18(16)26/h6-8H,9H2,1-5H3,(H,21,22,26)
SMILES=COc1ccc(-c2nc(CSc3nc4c(O)nc(C)nc4n3C)c(C)o2)cc1OC
IONMODE=positive
INSTRUMENTTYPE=LC-ESI-Orbitrap
INSTRUMENT=Orbitrap
COMMENT=DB#=CCMSLIB00010119298; origin=GNPS
NUM_PEAKS=27
COMPOUND_NAME="8-{[2-(3,4-dimethoxyphenyl)-5-methyl(1,3-oxazol-4-yl)]methylthio}-2,9-dimethyl hydropurin-6-one "
PRECURSOR_MZ=428.139
COLLISION_ENERGY=205060
PARENT_MASS=427.13172354800923
59.497478 0.000674522628964642
61.83448 0.0006504561914663945
69.033852 0.005087291618322198
96.275436 0.0007206683669199973
104.275291 0.0009202652430522514
120.044449 0.003587223945266297
122.036461 0.002999914553107231
135.031464 0.0010414806025617728
146.14621 0.000808323189734715
148.0392 0.019167703105828958
148.052139 0.0009399158204590772
149.046951 0.02854632756099462
154.02626 0.007856035895643512
163.062515 0.0013146015492161958
163.075424 0.011001894624772225
164.070465 0.9384294419523047
165.054611 0.009372442251037671
182.081589 0.001291859869745375
197.049454 0.007944794683481084
205.097366 0.0036099656247371185
212.370636 0.0007336951541896908
217.073975 0.004293099180880032
232.096527 1.0
273.122314 0.0017131329224669908
292.149811 0.0007297208801074114
325.190948 0.0007272921570571295
428.137817 0.042312329809992166
END IONS

BEGIN IONS
CHARGE=1+
PRECURSORTYPE=M+H
FORMULA=C19H17Cl2NO6
ONTOLOGY=
INCHIKEY=FFIYJDUOKQDRJD-UHFFFAOYSA-N
INCHI=InChI=1S/C19H17Cl2NO6/c1-8(2)26-19(25)15-14(9-3-4-11(20)12(21)5-9)17-16(28-18(15)22)13(24)6-10(7-23)27-17/h3-6,8,14,23H,7,22H2,1-2H3
SMILES=CC(C)OC(=O)C1=C(N)Oc2c(oc(CO)cc2=O)C1c1ccc(Cl)c(Cl)c1
IONMODE=positive
INSTRUMENTTYPE=LC-ESI-Orbitrap
INSTRUMENT=Orbitrap
COMMENT=DB#=CCMSLIB00010123513; origin=GNPS
NUM_PEAKS=283
COMPOUND_NAME="methylethyl 2-amino-4-(3,4-dichlorophenyl)-6-(hydroxymethyl)-8-oxo-4H-pyrano[3 ,2-b]pyran-3-carboxylate "
PRECURSOR_MZ=426.051
COLLISION_ENERGY=205060
PARENT_MASS=425.0437235480092
51.664261 0.001299482451376015
55.018311 0.0441262944326491
57.033932 0.020356314048325486
67.018204 0.0648734471457235
68.013283 0.0022760981796985766
68.025909 0.010904046061891659
68.997353 0.023615119781309896
69.033737 0.0076494084196715925
71.012878 0.007937006682411362
73.028503 0.002702525927127666
74.239449 0.0013972722731548663
83.012939 0.07411827246103957
84.020416 0.0022886024519916098
84.959793 0.0019179629963314388
84.9841 0.0022347378944216198
85.028542 0.04504744249156924
86.02346 0.005516307815426681
86.422112 0.0014084940559819477
95.012802 0.027241358746289596
97.028313 0.011822949764246374
99.007607 0.0017576518130874204
101.023209 0.07457804493458342
102.046066 0.006370125177384324
104.281242 0.0018365249152434773
111.007248 0.006213020217805186
113.023216 0.025516089792217467
115.054008 0.002529069226857638
122.030563 0.0013527057642130293
122.99913 0.00600493630195445
124.015381 0.021794305362024334
125.014038 0.003003269706893445
125.02298 0.010924886515713382
128.061325 0.00318378009922621
129.033051 0.001515581926388952
129.069626 0.001549247274870196
136.007507 0.0028721351589998377
137.014984 0.00338801654667909
137.039001 0.0022055612590712085
139.035324 0.03685682351726584
140.049118 0.00565032796461868
141.069778 0.001678137466198387
143.034073 0.010472488356598761
144.056656 0.002099435255763668
145.064529 0.001817287573254195
147.060165 0.0022177449089977536
148.038681 0.0016816643122297553
149.01503 0.005504444787866623
150.994461 0.036422700833041034
152.001984 0.008018444763499324
153.009232 0.0014690916832481868
154.064743 0.0018650603058609128
155.048798 0.01839891450091602
157.02774 0.0020507006560574865
158.976059 0.3851187617307708
159.041809 0.014518421999311304
161.015549 0.0017175740172764157
162.022873 0.17071537903655543
163.030365 0.015586735724449444
165.009781 0.006068098908152593
166.01799 0.002074747333544089
167.031616 0.011936450081983139
167.564301 0.0015909281825136408
170.975952 0.03500651184026337
171.044205 0.0018634571940284725
171.060562 0.0016800612003973153
172.955185 0.08819134999329899
172.99086 0.012387886373998295
173.015823 0.002143360519972529
174.009369 0.004588106064443813
174.971085 0.005658022901414393
175.018021 0.012199681044869818
175.055359 0.0031093957102009853
176.002243 0.006328764892107368
176.037354 0.00650959590680662
177.050461 0.015529664943214573
178.0177 0.0071543674858140635
178.042999 0.006497091634513587
178.063599 0.001884938892583171
179.025742 0.008891499467446249
181.005386 0.0031388929679178846
182.976089 0.0453914702908109
183.043381 0.016128908146180714
183.982452 0.0016085624126704829
184.051575 0.029237232977677628
184.991425 0.007022271070820992
185.059189 0.0019336734922893526
185.963623 0.006817714001001624
186.02272 0.006227768846663636
186.970886 0.16554790835586775
189.006668 0.01856050817362599
190.017731 0.0700623995249659
190.037613 0.002298862367719227
191.025909 0.024103748267837666
192.030838 0.0031975668609851957
195.025665 0.00740156733037634
195.969986 0.0023777354698752843
196.95575 0.009675741775875988
196.991562 0.16306404688268492
197.057831 0.011482769433402566
197.965561 0.0021552235475325865
197.987 0.01469700865744514
198.970932 0.19499643147306098
199.980103 0.0016130511258013154
200.00238 0.0029638331558154165
200.024719 0.001982087469629046
200.987091 0.008503225781629237
201.009277 0.002846485369680795
201.03418 0.007295120704702312
201.053299 0.001998118587953448
202.018356 0.018241168296603903
202.038544 0.0022074849932701367
202.988174 0.0017881109379037838
203.029343 0.0016492814532144636
203.050293 0.0065737203801042275
203.999298 0.0015607896800637654
205.00528 0.009007564764114918
205.046051 0.01833639313945085
206.061005 0.0022228748668615622
206.975815 0.006536848807958104
207.021133 0.008099882844587285
207.970581 0.010250938301355527
208.992157 0.02384500601808182
209.98642 0.007612216225158981
210.97052 0.031196235636919537
211.018219 0.0021273294016481274
212.372299 0.001980484357796606
212.986465 0.00945194736406734
213.034271 0.002151696701501218
213.054352 0.005339644891491773
213.981979 0.012250018756408439
214.965836 0.03738681228907056
217.004761 0.029924006086695005
217.026474 0.0020436469639947496
218.012604 0.5819465881612115
219.021027 0.01850151365819219
220.02388 0.011444935994156979
220.995255 0.0025479859464804322
221.986557 0.0017493156315587313
222.05426 0.008048262643582712
222.970276 0.015877540210854094
223.966766 0.008743371934128776
224.951096 0.02599926769851494
224.986465 0.3143817727467141
225.051697 0.020773443747126422
226.965546 0.008960753898607666
227.997253 0.007778619233366272
229.029266 0.00745382877611389
229.051102 0.0033008072629943435
230.057053 0.08871845316380532
231.021606 0.0017775303998096785
231.044632 0.002867005201136029
232.02803 0.00182466188768342
233.040848 0.016395024710365785
233.985992 0.0017794541340086067
234.010147 0.0016470370966490473
234.971725 0.02653214207161806
235.015518 0.007996642442578137
235.038177 0.002347917589791897
235.981598 0.01048916071965614
236.0224 0.015371918738902458
236.950027 0.0025085493954024036
236.988617 0.011048326126811276
237.981186 0.011850202665397857
238.033554 0.019910969581273603
238.965866 0.00747018051680478
239.003265 0.0016826261793292194
239.997238 0.0020622430612510555
240.020996 0.002496365745475858
240.981598 0.011235890211206778
241.027771 0.0027586348412630725
242.960373 0.031090109633611997
242.997528 0.00768916559311611
243.023087 0.002270326977101792
246.007217 0.00944361118253865
246.970718 0.0018887863609810276
247.015152 0.025014315788663692
248.001633 0.0023280390030696384
248.986725 0.009015580323277119
249.982437 0.008259873405464815
250.048492 0.0018968019201432284
250.966034 0.003166787113802344
251.051758 0.013622603107343726
251.973907 0.030919217912273873
251.99855 0.003725311276224505
252.981232 0.24419465112118435
253.045029 0.02294117156695204
253.989227 0.0928868645505163
254.055161 0.0017480331420927791
254.997528 0.006745894590908304
256.016357 0.008949211493414096
257.0242 0.005802623588700498
259.039734 0.019100436238791842
260.021759 0.012795076779438103
260.048218 0.03039724469963135
262.003113 0.028043876529609154
262.964752 0.023152461706467658
263.010101 0.034476523068458644
263.964081 0.008419863966342346
264.018219 0.16424297532426144
264.980408 0.011036783721617706
265.025452 0.05249037010722253
265.977417 0.0033992383295061712
266.023499 0.006557368639413338
266.964722 0.00306290546706022
266.997559 0.017363945501892634
268.06073 0.02661710699873739
268.976532 0.008483667817273466
269.984283 0.015730374544636085
270.99115 0.08968160275273539
273.981598 0.00929323929265576
277.051025 0.002024409622005467
277.979218 0.003150435373111454
278.056915 0.0022244779786940025
279.992493 0.008389084219159494
280.050446 0.0020930228084339074
280.975922 0.07540332690592362
281.041443 0.0025842162738935804
281.9841 0.05207708787681945
282.956024 0.005301811452246184
282.991699 0.01756209012438224
284.011536 0.00757630652011232
284.971436 0.006050785300362239
285.01709 0.005116491724416098
286.002014 0.008939272200052967
288.017426 0.023391645991867733
288.047455 0.002135665583176816
289.941986 0.002667257466813982
289.979095 0.009016862812743071
290.984711 0.002945557680925598
291.960907 0.0016053561890056025
291.99118 0.010576690625707373
292.9758 0.008321112277464031
294.008484 0.008216268763622444
294.991638 0.08480173033478747
295.056976 0.009554867143709999
296.055817 0.015116703335177981
296.971588 0.0031943606373203153
297.042297 0.0024489136352356285
297.967285 0.012433414750039597
298.000702 0.0015200706395197847
298.986603 0.6342134844789918
299.051575 0.04207623502132459
299.994293 0.31416054331383736
300.058838 0.005564401170399887
302.02124 0.01969038139312983
305.971466 0.005697459452492422
307.985413 0.010686343475046281
308.970917 0.0031520384849438943
309.977509 0.0021908126302127586
310.986877 0.025725456197534156
318.978394 0.017354326830897993
319.98645 0.07582141847182403
320.05191 0.002656676928719877
320.970581 0.002470074711423839
322.00531 0.017389915913578163
322.986389 0.030886193808525607
330.015381 0.04474573684470399
331.023041 0.0020163940628432665
335.981415 0.08277796195751497
336.047302 0.024922297169481623
336.989685 0.025510639211987172
337.056427 0.0023004654795516673
337.996643 0.019665693470910253
338.981201 0.1474122248178384
340.012817 0.1639941723678667
340.078308 0.021017757990390306
346.974121 0.015106764041816852
347.980774 0.01704492624723704
348.966553 0.007125190850463652
363.976746 0.0032588057329844106
364.985321 0.026708163750819993
365.05011 0.008836352420410308
365.992401 0.9659787606919543
366.05603 0.12750510270496265
366.975372 0.021964555838629482
381.028748 0.03844358360901513
382.995605 0.06705592359440758
383.060486 0.037946298318592184
384.003082 0.456836855156281
384.065765 0.047077623316171484
384.987396 0.0025518334148782887
426.050537 1.0
426.114746 0.15940574568105642
END IONS

BEGIN IONS
CHARGE=1+
PRECURSORTYPE=M+H
FORMULA=C23H18N2O2S
ONTOLOGY=
INCHIKEY=KDDXEPFKCPQIAW-UHFFFAOYSA-N
INCHI=InChI=1S/C23H18N2O2S/c1-16-13-22(27-20-12-11-17-7-5-6-10-19(17)14-20)25-23(24-16)28-15-21(26)18-8-3-2-4-9-18/h2-14H,15H2,1H3
SMILES=Cc1cc(Oc2ccc3ccccc3c2)nc(SCC(=O)c2ccccc2)n1
IONMODE=positive
INSTRUMENTTYPE=LC-ESI-Orbitrap
INSTRUMENT=Orbitrap
COMMENT=DB#=CCMSLIB00010115003; origin=GNPS
NUM_PEAKS=62
COMPOUND_NAME=2-(4-methyl-6-(2-naphthyloxy)pyrimidin-2-ylthio)-1-phenylethan-1-one
PRECURSOR_MZ=387.116
COLLISION_ENERGY=205060
PARENT_MASS=386.1087235480092
50.015839 0.0035390606881138763
51.02343 0.012158304945548665
53.036171 0.003769978123083009
53.039101 0.11674984714269794
55.018299 0.004570157234693437
60.84774 0.0025852712828065907
63.216961 0.002779041130411123
65.039001 0.010648305718620077
65.163063 0.0026113749928465793
67.018051 0.011607115068165823
77.03894 0.005455675398357675
81.033653 0.01616723241438234
84.04454 0.035029170895969686
84.812172 0.0029617671006910455
91.05439 0.2959558325226123
95.049187 0.04640034858492792
103.054077 0.028020324750232674
104.283447 0.0028975118144387653
105.033524 1.0
105.069801 0.013802838678067964
105.535027 0.002681654212185011
109.039619 0.003660543338684594
110.023537 0.0036103438962999997
115.758163 0.002741893543046524
119.049133 0.029741161635176556
129.070145 0.03872083788893273
135.026016 0.016996527202575835
141.069946 0.003402518204827781
144.057297 0.010620194030884706
145.065277 0.02033780208769441
151.020447 0.0043553036212873745
154.064941 0.016750549934891324
155.060211 0.01626863528799922
157.064468 0.01436206046623234
159.02713 0.003191680546812486
165.293304 0.002931647435260289
166.064575 0.003074213851632536
167.059494 0.004394459186347358
169.076309 0.005117331156685512
174.037216 0.01419539831751549
185.029266 0.046451552016160205
188.052689 0.003340270896270884
192.880035 0.002883455970571079
194.060547 0.004170569673312069
195.054749 0.024922015166255532
198.036591 0.0030199984538571744
207.093002 0.003043090197354088
221.107819 0.003297099375820133
225.048447 0.004273980524624333
230.096619 0.005745828175340628
235.086426 0.045447563168468326
239.062424 0.003940656227190628
243.058716 0.003884432851719883
248.093826 0.023651969273925304
249.10199 0.08074178712022867
267.058746 0.030438933884322412
281.0737 0.003735842502261485
286.067932 0.010851111465853836
303.093872 0.010463571770644772
369.102814 0.01291430854786065
375.327362 0.0029627710895387374
387.115753 0.9102403850498029
END IONS

BEGIN IONS
CHARGE=1+
PRECURSORTYPE=M+H
FORMULA=C14H11F3N4OS
ONTOLOGY=
INCHIKEY=WGCHSAGAVGYEMC-UHFFFAOYSA-N
INCHI=InChI=1S/C14H11F3N4OS/c1-21-11-10(12(22)19-7-18-11)20-13(21)23-6-8-3-2-4-9(5-8)14(15,16)17/h2-5,7H,6H2,1H3,(H,18,19,22)
SMILES=Cn1c(SCc2cccc(C(F)(F)F)c2)nc2c(O)ncnc21
IONMODE=positive
INSTRUMENTTYPE=LC-ESI-Orbitrap
INSTRUMENT=Orbitrap
COMMENT=DB#=CCMSLIB00010121612; origin=GNPS
NUM_PEAKS=48
COMPOUND_NAME=9-methyl-8-{[3-(trifluoromethyl)phenyl]methylthio}hydropurin-6-one
PRECURSOR_MZ=341.068
COLLISION_ENERGY=205060
PARENT_MASS=340.0607235480092
62.924961 0.000498959297042229
66.046043 0.0005178468280362568
75.022957 0.002230535290694705
75.027557 0.0005043791972405153
82.618958 0.0004884479754455527
95.029221 0.0007504098183627204
104.28904 0.000683564382583857
109.044762 0.0941581195114272
114.027924 0.0005467529624271167
118.041229 0.0030481190236361848
124.050346 0.0010714978452611925
127.036003 0.0008634065255269909
135.044617 0.0004918970028444621
136.038208 0.0007236387961711854
137.046875 0.00546391635747231
139.035248 0.01506403776323675
140.043106 0.05097695343468109
147.035126 0.0021103120499327195
149.005569 0.0038939519333687322
149.04541 0.006372160239185123
150.053223 0.0008599574981280815
154.006866 0.0006364276747987615
158.034256 0.0006135983982059802
159.041534 1.0
163.186691 0.0005083209428392689
171.007233 0.041383730083714466
181.017624 0.0033659222625356954
182.025436 0.07620330406970452
183.03334 0.0022144398294997943
193.057465 0.0005940539096121601
200.067978 0.03840327769285688
238.084686 0.007821244464926923
253.053543 0.0007886775985506201
256.074982 0.01282972496634324
257.083679 0.0010721548028609846
268.076385 0.0007247884719708219
269.082916 0.003535745802081997
273.058014 0.0030619151332318224
281.048645 0.004200258414271878
286.027771 0.0005587424386233257
287.073944 0.00493276613804026
288.081055 0.014815872029915222
299.06015 0.0008790092685220573
301.055725 0.007004481928985183
319.065765 0.0008510885705308858
320.071167 0.007283360430097001
321.061035 0.18442622883508442
341.0672 0.33089738929977025
END IONS

BEGIN IONS
CHARGE=1+
PRECURSORTYPE=M+H
FORMULA=C33H40N2O9
ONTOLOGY=
INCHIKEY=QEVHRUUCFGRFIF-UHFFFAOYSA-N
INCHI=InChI=1S/C33H40N2O9/c1-38-19-7-8-20-21-9-10-35-16-18-13-27(44-32(36)17-11-25(39-2)30(41-4)26(12-17)40-3)31(42-5)28(33(37)43-6)22(18)15-24(35)29(21)34-23(20)14-19/h7-8,11-12,14,18,22,24,27-28,31,34H,9-10,13,15-16H2,1-6H3
SMILES=COC(=O)C1C2CC3c4[nH]c5cc(OC)ccc5c4CCN3CC2CC(OC(=O)c2cc(OC)c(OC)c(OC)c2)C1OC
IONMODE=positive
INSTRUMENTTYPE=LC-ESI-Orbitrap
INSTRUMENT=Orbitrap
COMMENT=DB#=CCMSLIB00010116390; origin=GNPS
NUM_PEAKS=332
COMPOUND_NAME=
PRECURSOR_MZ=609.281
COLLISION_ENERGY=205060
PARENT_MASS=608.2737235480092
50.01564 0.0009340124569620159
53.039139 0.003026134486899313
55.018261 0.002832693957700751
55.054691 0.0013504099811766023
56.04998 0.007948796912653683
58.06572 0.001025348816852103
65.039032 0.012084269129868522
66.046783 0.0036130434402568364
66.729553 0.0007761690388995349
67.018356 0.0007865568079855088
67.05471 0.009951482784362961
68.026016 0.001656089088548004
68.049873 0.004782047502761309
68.99749 0.000982277579178553
69.033836 0.003103409354490094
70.065437 0.007388744142786727
71.049477 0.016777133834623422
75.044441 0.011360292296620465
77.039017 0.0025662856846787627
78.046837 0.0026540750014663224
79.054497 0.06573874330036399
80.049759 0.01331978025054539
80.062363 0.0008041653433873426
81.033699 0.033897697449638005
81.058037 0.0008823269717537557
81.070129 0.033054641312233665
82.041634 0.0015069865981310376
82.065422 0.0057592578775076805
83.012779 0.000701681133746454
83.049316 0.0038636166994282547
85.028633 0.005741395981884238
85.06501 0.0014650554814547286
91.054314 0.04510724041440105
92.026131 0.003177643899421566
92.049553 0.0032944429615833696
93.033546 0.004644599582538363
93.051376 0.0007484260946333365
93.057449 0.004144719865303572
93.069687 0.006031366755515874
94.041351 0.011682946538839679
94.065193 0.027187198620098888
95.049156 0.012557165983501942
96.05703 0.024447994584171902
97.028679 0.0009089297950227131
97.064529 0.0068916513879896365
98.036568 0.0008696589606732997
99.044197 0.0012352577604552578
101.059921 0.0038392941181537793
102.054947 0.0009620087614498234
103.054268 0.008633629591663132
104.048828 0.0009601085597877551
105.033524 0.004188931223974363
105.044533 0.0011260595049417278
105.069893 0.01110921231700583
106.040993 0.0008678854391220359
106.064949 0.014840828340975734
107.049088 0.008913085916097989
107.072693 0.006206185308426165
107.085533 0.0008194936367946943
108.056847 0.016537455064981197
108.080963 0.009113747211612412
109.028381 0.006995275718627765
109.064743 0.053895673101467347
111.043953 0.026749138796936724
111.080292 0.014238464414100054
112.07547 0.0009860779825026898
113.023438 0.009655431365412706
113.059547 0.010231572509351843
115.054092 0.026089008739534163
116.062233 0.007705951140241344
117.05706 0.010074995892397407
117.069794 0.0175600169193956
118.041473 0.0008754862457703095
118.064941 0.019969979347341536
118.989143 0.0006702644662669234
119.048981 0.0036339456585395887
119.07325 0.001269968110815707
119.085358 0.003887052519927098
120.080681 0.022527524104374783
121.028313 0.007179595279848399
121.064728 0.01647335492891409
122.036171 0.03646917701885975
122.072243 0.003675243374661875
123.044029 0.003788242033499542
123.080162 0.0074043257964156875
124.051826 0.06275973381468397
124.075417 0.002888179846233148
125.059181 0.0013918343774096933
126.09156 0.0011696374630584961
127.039284 0.0010505581589022104
128.046707 0.018284500473086874
128.061676 0.004092020939208875
129.069504 0.009963137354556981
130.065018 0.03442975391501715
130.076157 0.0012708548715913391
131.04985 0.006317663805934178
131.072937 0.09869128044328918
131.085052 0.007195050253366556
132.044022 0.0031753636574270837
132.056824 0.007737494487831679
132.080704 0.038882306449575806
133.052231 0.003342328043467493
133.064789 0.005562777025649809
133.088501 0.0011559560110916038
134.060074 0.00545611237235237
135.044235 0.005930656067426249
135.07991 0.007667947106999975
136.075653 0.007379623174808799
137.023041 0.012766188166329465
137.059021 0.006507683972141016
139.075272 0.1083413912440481
141.018127 0.01831743730189606
141.054886 0.002870064590388096
142.06514 0.018452731660235328
143.049362 0.004419869065971075
143.072815 0.11125250019033686
144.058044 0.006987421551757883
144.080673 0.04511344773983047
145.052124 0.004973081109854585
145.064789 0.006061009901444141
145.088364 0.01136510614083104
146.060074 0.014457240965459528
146.072372 0.0013101257059407526
146.096313 0.006227467567041332
147.067612 0.012100230823829897
147.080399 0.035434453873808114
148.075607 0.03199052838147536
149.059692 0.013077694558797877
149.082962 0.0008344418898696322
149.095444 0.0015105336412335653
150.09137 0.0063182972064882
151.038544 0.013758600154372382
151.075516 0.0012122019802888282
152.046677 0.13239642412450425
154.063629 0.006679588882502804
155.034622 0.0011040171656617344
155.048904 0.00263900006828058
155.072479 0.0032579590896716568
156.041611 0.03524582718882013
156.080338 0.005604074741772095
157.088821 0.00670365810355567
158.059906 0.013142174735197397
158.072922 0.0018178595900454262
158.096191 0.0032659399366523436
159.06778 0.25828972476085643
159.079285 0.009180507630006414
159.958771 0.0008205070776811307
160.075546 0.07964036529983472
161.060394 0.008610067091053483
161.083313 0.031650772324297534
161.097855 0.001598322958021125
162.090988 0.018393192008157186
163.075134 0.003542482618538697
163.09935 0.002451260144068223
164.07103 0.0015112937218983928
164.106735 0.0075649561769158685
165.05394 0.0009013289883744395
166.086273 0.001481903936191735
167.07077 0.005458139254125242
168.080658 0.0033770383938279422
169.087845 0.005590519969916007
170.059433 0.0068941849902057276
171.067276 0.003760372409122539
172.075348 0.01891954786855013
173.083344 0.036091543608551366
174.091263 0.9865744418569328
175.075668 0.006956131564389157
175.099609 0.00139424129951498
176.069427 0.0010039398781261327
176.106979 0.008759676301913667
178.085785 0.00811183421525915
179.069901 0.0037452974759367963
180.041061 0.0026884053114943577
180.08046 0.001531309179405513
181.087479 0.004965100262873898
182.060013 0.001578434180624809
182.096466 0.0016664768576339778
183.067368 0.003069332404683668
183.104874 0.0010487846373509466
184.036682 0.011535617569973976
184.075775 0.012808879363670601
185.082657 0.023388568817513375
186.09137 0.03435754625185856
187.079376 0.001087168710924728
187.099335 0.012378293667045905
188.070786 0.000987724823943149
188.106979 0.03492114606482804
189.078323 0.0015060998373554058
190.085678 0.011118333284983758
191.094437 0.0007533666189547143
192.101669 0.04241858174268508
193.087616 0.003922142910619961
195.065079 0.9071757822085131
196.075287 0.0040315945263551005
197.083572 0.008838724691055714
198.091385 0.020817215928402428
199.084473 0.0062321547311411
199.099564 0.009554340636990668
200.089981 0.0010799479446088683
200.107605 0.029922982293034153
201.100815 0.00907346293637656
202.08609 0.0009901317460484357
204.080688 0.0016245457409576687
204.101593 0.023919485161895283
205.08815 0.0011939600443329715
206.096558 0.0010537251616723243
206.11705 0.001716768861623388
206.91626 0.0007529865786223005
207.102982 0.003805470528568962
208.076202 0.0013193733540294854
209.082779 0.0028097648576451257
210.091537 0.012405023170425666
210.112488 0.0012037144128649226
211.099442 0.007957411160188393
212.110184 0.009268930347347996
213.101089 0.006184523009478586
214.108246 0.008986940420697047
215.117325 0.013352843759465379
216.102661 0.00100609344000981
217.08844 0.001507493318574256
218.097092 0.0016677436587420233
219.105942 0.001011033964331188
220.077225 0.0008738394043298502
221.083191 0.0031004957119415894
222.09082 0.007195810334031383
222.112762 0.0036608018420301552
223.101105 0.006212772674188002
224.106476 0.017286007839725337
224.128448 0.011438833965319292
225.101196 0.0014636620002358783
226.085709 0.0013322947253315504
226.124084 0.0062420357797838555
227.11702 0.013349930116916875
228.125 0.001128846467379428
229.131912 0.0007208098304779425
230.095749 0.001269968110815707
231.10405 0.002625191936202883
232.074295 0.0015689331723144672
232.113892 0.0007627409471542517
233.082626 0.0013618111911490127
233.119537 0.0016425343166919161
234.090408 0.007954497517639889
235.09845 0.006788787138016334
236.105484 0.009225479069342032
236.128723 0.03022549439763544
237.113632 0.007664906784340666
238.084442 0.0010605658876557706
238.123978 0.013922777577975092
239.114105 0.0063248845722500375
242.117172 0.0010438441130295687
243.10173 0.0010752607805090996
244.112274 0.0014317386123131293
245.119843 0.0032569456487852202
246.090576 0.005843753511414322
247.09874 0.009617807372503753
248.106384 0.01572708239616443
249.112274 0.004636998775890089
250.085083 0.0012284170344718118
250.1203 0.009790852403862781
251.117157 0.027853662683041677
252.131714 0.0012147355825049193
253.133408 0.010419185753453394
257.120636 0.002601629435593235
258.091827 0.0030262611670101177
259.09967 0.0016208720177443366
260.106934 0.010573608808524152
261.114502 0.01158489613307695
262.088898 0.001114784975080122
262.122162 0.02013960401570884
263.126801 0.0032407305946022366
264.100098 0.003217041413881784
264.129944 0.005797641951081462
265.133209 0.021634302643091834
266.141327 0.0054067071291385915
267.149445 0.002716781656314579
272.104706 0.0013284943220074135
273.114563 0.00741078648206672
274.086487 0.002659648926341723
274.122253 0.012355744607322694
275.128387 0.003236043430502468
276.102081 0.003235410029948445
276.138031 0.018035827415577525
277.140686 0.00446585394619313
278.116425 0.0025100397154815385
278.150452 0.001239564884222613
279.116913 0.0012877033263283455
279.150299 0.0012922638103173097
280.130737 0.001069686855633699
286.086609 0.0011142782546369038
286.119751 0.0012157490233913558
287.129974 0.0008238007605620493
288.101227 0.0011111112518667897
288.137848 0.010593497585920469
289.108673 0.003008652631608284
289.140076 0.0014195773216758916
290.116608 0.004132811934887943
290.14798 0.001261100503059388
291.148438 0.004045402658432797
294.111389 0.0007172627873754148
302.118073 0.0008260810025565314
304.130157 0.00738355025824374
305.165466 0.005497916808917875
306.111176 0.0023252134338176862
308.127136 0.0016697705405148964
308.165222 0.0014794970140864483
316.132111 0.003258972530558093
318.141174 0.0009495941105909767
320.127319 0.002869431189834073
333.161774 0.005484108676840177
336.159515 0.010013049318213977
337.19046 0.0014892513826183994
348.158234 0.003761765890341389
349.154449 0.002883619362244184
350.161621 0.007871268684841294
365.18515 0.03873903124425585
366.167816 0.0009799973371840708
367.165802 0.0010843817484870277
368.18689 0.0028195192261770766
380.18161 0.0010033064775721097
381.180573 0.0016363269912624927
382.187866 0.0031519278369282404
397.211456 0.19804864490918872
413.204163 0.002733250070719172
434.181335 0.0027247625032952665
436.194672 0.011215116889638442
448.195587 0.040153414681388756
497.622375 0.0008144264323625118
577.253174 0.01395520768634106
591.269714 0.0010573988848856567
592.253601 0.0017024540091024726
594.256104 0.003730982623415881
609.279419 1.0
END IONS

BEGIN IONS
CHARGE=1+
PRECURSORTYPE=M+H
FORMULA=C33H40N2O9
ONTOLOGY=
INCHIKEY=QEVHRUUCFGRFIF-UHFFFAOYSA-N
INCHI=InChI=1S/C33H40N2O9/c1-38-19-7-8-20-21-9-10-35-16-18-13-27(44-32(36)17-11-25(39-2)30(41-4)26(12-17)40-3)31(42-5)28(33(37)43-6)22(18)15-24(35)29(21)34-23(20)14-19/h7-8,11-12,14,18,22,24,27-28,31,34H,9-10,13,15-16H2,1-6H3/t18-,22+,24+,27-,28+,31+/m1/s1
SMILES=COC(=O)C1C2CC3c4[nH]c5cc(OC)ccc5c4CCN3CC2CC(OC(=O)c2cc(OC)c(OC)c(OC)c2)C1OC
IONMODE=positive
INSTRUMENTTYPE=LC-ESI-Orbitrap
INSTRUMENT=Orbitrap
COMMENT=DB#=CCMSLIB00010120240; origin=GNPS
NUM_PEAKS=245
COMPOUND_NAME=Isoreserpine
PRECURSOR_MZ=609.281
COLLISION_ENERGY=205060
PARENT_MASS=608.2737235480092
51.02327 0.0012176339726460174
53.039082 0.005267032917650722
54.343639 0.0009777385189485635
55.018162 0.002034458700987679
56.049801 0.00800007081114622
62.627041 0.0009162326836108056
65.039032 0.00887953616883556
65.425827 0.0009554965563540975
66.046638 0.0022541548213085264
67.05442 0.0062356930845199115
68.026047 0.0011672491186054926
68.049713 0.0041640131400068
69.033661 0.0021452145963560404
70.065453 0.008664152265752416
71.049408 0.00899119989941186
75.044472 0.007840518773351225
79.054443 0.05347830251157149
80.049782 0.011147308518263148
81.033638 0.025527645170793308
81.070061 0.024588943565786052
82.065399 0.0022187492481989682
83.049049 0.004085485394520216
85.028343 0.0042259728929485265
85.064697 0.001503829021948278
91.054199 0.03961860935079343
92.025581 0.001539915471463789
92.049393 0.004500366084547601
92.384903 0.0011313896278919659
93.033379 0.0025807485373640004
93.0569 0.0024009971661923986
93.069817 0.0024068980950439915
94.041267 0.007791949589726573
94.065079 0.027699413946981517
95.049133 0.01135520278088081
95.954773 0.00107782735062366
96.057022 0.019018239771080275
97.064598 0.0038185818433866246
99.043869 0.0038800876787243826
101.059357 0.0017920667004683976
103.054207 0.005218690692828057
104.296928 0.0014037401902731812
105.033058 0.0020088123563634483
105.044662 0.0013606180178961555
105.070152 0.010996607873745541
106.064972 0.014262091116696315
107.048683 0.007266313004330828
107.072617 0.005047336797329875
108.056953 0.015410048737133138
108.080437 0.008835506161250598
109.028214 0.006456750957652665
109.064751 0.04000943240781047
111.043839 0.024990660645298344
111.080338 0.012845414274710027
113.023422 0.00922474050665375
113.059753 0.009010945315184498
115.054077 0.025088933806557565
116.061783 0.004278173417404925
117.057098 0.008209780744179756
117.06958 0.01484719090821196
118.064987 0.01815171106510404
119.049759 0.001535376295424102
119.072731 0.0010589897700589593
119.08519 0.0044744927811213855
120.080513 0.02511094881035005
121.028191 0.005917723802939843
121.064537 0.010185230156651504
122.036118 0.027213268193131048
123.044296 0.0015099569096018552
123.079964 0.005214378475590354
124.051727 0.04876527602956456
124.075272 0.0022811629187446635
124.413803 0.0011422836503872144
125.059311 0.004630186519282647
127.762802 0.001150454167258651
128.046631 0.014086651962762415
128.0616 0.0019988261690761368
129.069458 0.00727947661484592
130.064911 0.034373591436935184
131.049011 0.005586136993240713
131.072815 0.09512864705772879
131.084244 0.004945886212842873
132.045517 0.0021490728959897743
132.056717 0.009231095353109313
132.080612 0.04086166270926169
133.052551 0.0011699726242293046
133.064438 0.004047129356984862
133.089706 0.0011974346392694105
134.059723 0.005159227486708158
135.044083 0.0037087337832262014
135.080185 0.0060997447621312885
136.07547 0.005482870738337835
137.023071 0.009781697406723336
137.05925 0.007365494000797987
139.039642 0.0013778668868469658
139.075134 0.09043695470310838
141.018051 0.01565402944926631
141.055161 0.0019146244535399445
141.068436 0.0010878135379109714
142.064682 0.02084639292106418
143.072662 0.11550001520623973
144.056778 0.00422097979930487
144.080551 0.041480579362273
145.05278 0.0016654236889611324
145.064606 0.00454734655655836
145.087646 0.008869323022746265
146.059921 0.00973335518190067
146.095718 0.007843696196579004
147.067566 0.008467152025630004
147.080154 0.036036064661470524
148.0755 0.03976840216010309
149.059189 0.009634401144235496
150.091049 0.002392145772915009
151.038727 0.012570113247903015
151.075546 0.0016722324530206627
152.046539 0.1180494434289299
154.063797 0.0022825246715565697
155.071121 0.0013456387369651887
156.041504 0.027630418471178274
156.080475 0.004284074346256519
157.065002 0.0014343796285410679
157.08812 0.0016427278087626977
158.059845 0.011772126100126052
159.067673 0.2644517151957542
160.075531 0.05468572333812822
161.059616 0.0065023696768515184
161.082977 0.016648335960759732
162.091141 0.011313669320117674
163.074951 0.00250449037989726
163.099182 0.0025310445597294287
164.071167 0.0013174958455191297
164.106384 0.005355546850424617
167.071274 0.0017986485057259437
168.08049 0.0016043717712273433
169.087357 0.0061390086348745805
170.059113 0.004447484683685248
171.066254 0.0014729626248784068
172.075272 0.01944832670084061
173.083511 0.018999856108119544
174.091141 0.9879060463186602
175.075272 0.007953317297937443
176.07019 0.0011316165866939502
176.106293 0.008630335404256749
178.086197 0.006456523998850681
179.069946 0.002077353914562721
180.041107 0.0022575592033382916
181.086609 0.002257786162140276
183.066803 0.0018381393372712198
184.036224 0.006956968157226164
184.075256 0.010421948187121178
185.082275 0.02167343079549514
186.091248 0.023237630858771254
187.099396 0.008417221089193447
188.070465 0.0012968425945385541
188.10675 0.014873745088044128
189.077454 0.002108447270434576
190.085724 0.006322618305679917
192.101654 0.05327018129015185
193.086426 0.004875075066623756
195.064911 0.8630126602158923
197.083817 0.006440182965107808
198.091843 0.013029023945515363
199.084961 0.005971286080208148
199.100006 0.005523723322695018
200.10788 0.023045623712292497
201.100677 0.007222963873151818
202.084885 0.0012126408790023616
204.101212 0.022072651328185606
205.087692 0.0014032862726692126
206.11673 0.0014706930368585634
207.101379 0.0017305608651306398
209.08287 0.0012385141824285773
210.091873 0.008924700970430445
210.111435 0.0014339257109370993
211.098465 0.005984222731921256
212.1091 0.007343478997005506
213.101685 0.004596369657786979
214.109909 0.006549350148862278
215.116745 0.00853637446023523
219.104172 0.0012044703621309253
222.091019 0.0024538785670547513
223.098648 0.0020800774201865328
224.105881 0.010043153946609304
224.128052 0.014063502164960013
226.123581 0.0014977011342947005
227.116943 0.009916510935102039
228.124405 0.0019114470303121637
231.103439 0.002132731862246901
233.119614 0.0020260612253142586
234.090683 0.0022033160496640327
235.098816 0.0015231205201169473
236.105652 0.0040539381210443915
236.128113 0.04025863317238928
237.113235 0.00525545801874952
238.124725 0.008020270144522825
239.115051 0.007592452802782333
244.111938 0.001627067651425778
246.090363 0.0024711274360055616
247.098969 0.004642669253391786
248.106033 0.008548630235542384
249.102509 0.001992244363818591
250.120712 0.005102260827410087
251.116943 0.018125837761677824
252.12999 0.0010020231107608884
253.133118 0.010374286838704465
254.139954 0.0013488161601929694
258.087555 0.0015914351195142355
260.106567 0.005395718558375846
261.11496 0.009059741457611131
262.122498 0.008253129875358764
264.099365 0.001625932857415856
264.129303 0.004633136983708443
265.133423 0.010889256360406946
266.139648 0.004598639245806823
267.150177 0.002183797592693379
273.115234 0.002462956919134125
274.089264 0.0011411488563772927
274.120117 0.007237943154082785
276.137085 0.012063314243071969
277.140564 0.002088474895859954
279.15094 0.0015238013965229004
288.137085 0.005793577338254406
289.108307 0.0017425896816358102
291.1474 0.0025131148143726655
292.096924 0.001406236737095009
304.13205 0.004762957418443489
305.16333 0.004487883350438462
308.125824 0.001620485846168232
336.157776 0.004501500878557522
337.18869 0.0014949776286708883
338.102722 0.0018093155694192079
350.161713 0.004822647583365373
363.169861 0.0013610719355001241
365.184265 0.02669330557778491
368.14856 0.004583659964875856
396.200897 0.0017514410749131996
397.211212 0.2088990092340458
413.206268 0.0018510759889843276
421.825226 0.001128893081070138
436.195679 0.017299253804850836
448.195343 0.0644245255312765
489.536499 0.001099388436812173
577.25293 0.006412267032463733
594.250122 0.001588484655088439
608.263977 0.0020818930906024075
609.279114 1.0
END IONS

BEGIN IONS
CHARGE=1+
PRECURSORTYPE=M+H
FORMULA=C33H40N2O9
ONTOLOGY=
INCHIKEY=QEVHRUUCFGRFIF-UHFFFAOYSA-N
INCHI=InChI=1S/C33H40N2O9/c1-38-19-7-8-20-21-9-10-35-16-18-13-27(44-32(36)17-11-25(39-2)30(41-4)26(12-17)40-3)31(42-5)28(33(37)43-6)22(18)15-24(35)29(21)34-23(20)14-19/h7-8,11-12,14,18,22,24,27-28,31,34H,9-10,13,15-16H2,1-6H3/t18-,22+,24-,27-,28+,31+/m1/s1
SMILES=COC(=O)C1C2CC3c4[nH]c5cc(OC)ccc5c4CCN3CC2CC(OC(=O)c2cc(OC)c(OC)c(OC)c2)C1OC
IONMODE=positive
INSTRUMENTTYPE=LC-ESI-Orbitrap
INSTRUMENT=Orbitrap
COMMENT=DB#=CCMSLIB00010122306; origin=GNPS
NUM_PEAKS=311
COMPOUND_NAME=reserpine
PRECURSOR_MZ=609.281
COLLISION_ENERGY=205060
PARENT_MASS=608.2737235480092
50.015419 0.0008145382597499458
53.03899 0.0025973862200715093
55.0182 0.0012763672983348677
55.054649 0.0009167094095511238
56.04985 0.00664189681125643
57.033798 0.0008195567419190213
59.0495 0.0006157291584365704
60.95467 0.0005835594009424966
65.03891 0.0076125227343676214
66.046761 0.0025977722571614383
67.054527 0.00681831576135393
68.025711 0.0008920030357956752
68.049667 0.0040802833615183305
68.997368 0.0011296732041618917
69.033699 0.0015081182313221744
70.065491 0.005297973022184007
71.049454 0.011108474620763597
73.953392 0.0006403068531620426
75.044403 0.007341267339177592
77.038689 0.0011570818375468423
78.046349 0.0026851453185153425
79.054443 0.047278348440680386
80.049606 0.011441238592282296
80.146553 0.0007420919658732918
81.033653 0.025775567815521625
81.070084 0.021910178434063707
82.041397 0.0008629215750210326
82.065178 0.0034147554184809337
83.049088 0.003374736240158306
85.02858 0.004877063915131547
85.064613 0.0010361235493691254
91.054222 0.032112495325734236
92.026016 0.0008324246449166507
92.049408 0.0036098328279249967
93.033257 0.00277586403464863
93.057068 0.0037975755326604107
93.069473 0.004334681803781465
94.041397 0.005988593376066781
94.065163 0.019515333007174885
95.049187 0.011335207071581829
96.056976 0.017553492516156295
96.33316 0.000732569717655046
97.027908 0.0009472063396555057
97.064667 0.006555553182142336
99.043777 0.0012992721656706482
101.059387 0.0028610495524929373
102.054848 0.0007684711670184322
103.054062 0.005845116257643212
105.033363 0.0033940380946547504
105.044296 0.0009428312526363116
105.069679 0.007265089353431625
106.040939 0.0008555868703123838
106.064903 0.01055759969343508
107.048729 0.005201206391641833
107.072563 0.003300874476951913
108.056793 0.010732345816142887
108.080841 0.006116371652833242
109.028183 0.004222087652552207
109.064697 0.03927129580040544
110.035797 0.0007797949216563462
111.043953 0.018567483272369498
111.080238 0.009218308349441803
113.02314 0.0077199697243978274
113.059593 0.006907490329127502
115.054077 0.016611690695759795
116.061653 0.004065742631131009
117.057297 0.006801458808427035
117.069519 0.01334105579085231
118.065109 0.014693987112023073
119.049004 0.002893219309987011
119.072403 0.0008362850158159396
119.085159 0.0038765844570658554
120.080582 0.01610212173705367
121.028381 0.005186536982224536
121.064629 0.011199836732046766
121.088158 0.0007321836805651171
122.036072 0.022995586051913753
122.059357 0.0008126080743003013
122.072151 0.0013322139973445796
123.043663 0.0016479923369064069
123.080093 0.005619927955184697
124.051697 0.04217712565533013
124.075279 0.001504000502362933
125.059387 0.002734686745056216
127.038254 0.0010065273724745776
128.046585 0.010759625770497862
128.061523 0.00308392163241188
129.069519 0.009072386329448685
130.056198 0.0005609118916666688
130.064819 0.025102061772625698
131.050018 0.004811566288873613
131.07283 0.06858167656937589
131.084732 0.0051789449194559346
132.044342 0.0013225630700963574
132.056641 0.0052229531477078275
132.080658 0.02804006138504446
133.05159 0.0029820078406706547
133.064194 0.004104346340123897
133.088318 0.0012299141685134251
134.059708 0.0032809292273055873
135.043762 0.004367108919335491
135.080078 0.004378818711063334
136.075668 0.005433214682689093
137.023148 0.00913994282018624
137.059265 0.004309203355846158
137.096588 0.0009419304994264776
139.07518 0.07468273541764195
141.017868 0.013075462272981238
141.054855 0.00098838362924792
142.06488 0.014623342324566089
143.048996 0.0033958396010744184
143.072647 0.07998160919303579
144.057861 0.0048518428252561936
144.080444 0.033299302019205605
144.08992 0.0007244629387665395
145.052094 0.003328926505486745
145.064468 0.0048990680292574935
145.088242 0.008129941113902302
146.059921 0.00971333657776061
146.096222 0.005691216137791564
147.067429 0.008709382785885558
147.080109 0.02587297784121368
148.075439 0.02448697600933901
149.059891 0.01010156121119909
150.091095 0.004794065940796837
151.038956 0.011068712800500922
152.04657 0.09913664091627705
154.063492 0.0041473251361359795
155.071915 0.002611026197248997
156.041473 0.02656720120793579
156.079803 0.004882983150510457
157.088425 0.0056649656156764
157.200912 0.0007096648503192656
158.059586 0.009431915539202453
158.072937 0.0016274036921101996
158.096603 0.0013247506136059544
159.067642 0.18485875031558532
160.075394 0.06393867980977122
161.060104 0.004974988656943508
161.083176 0.01969586968623163
162.090988 0.014660401885199261
163.075027 0.002778437615248156
163.098633 0.0010990475950275335
164.071014 0.001634481038758896
164.106461 0.005246372731163513
166.086258 0.0009258456206794407
167.071487 0.004816327412982736
168.080582 0.0015094050216219374
169.088043 0.0054374610906783106
170.058441 0.0038913825455131295
171.066559 0.002970812765062717
172.075409 0.015087101548600655
173.083405 0.023233127541249992
174.091125 0.733341019760724
175.075089 0.006542427921084754
176.10675 0.007720098403427803
177.076279 0.0009841372212587023
178.085922 0.007220051692939922
179.06958 0.002704961889131692
180.041672 0.0014405617405846198
180.079758 0.0009201837433604837
181.087036 0.0028632370960025343
182.095596 0.0030565129990269293
183.067139 0.002889230260057746
184.037186 0.007184407601636488
184.075363 0.009208786101223557
185.082336 0.01809999235646562
186.073868 0.0012295281314234963
186.091187 0.02401575340156582
187.075256 0.0008402740657452048
187.07933 0.0009098894209623802
187.099289 0.009989610455119714
188.106705 0.02620252483698297
189.078049 0.0011681482341248037
189.100723 0.0008147956178098984
190.085403 0.010072222392364496
191.093765 0.0006446819401812367
192.081223 0.0014152119716792898
192.101501 0.035982259794211345
193.08638 0.0033535042002122177
195.064911 0.697557054351706
196.07431 0.0026763951444769545
197.082855 0.00657588446887859
198.091187 0.015208059836778372
199.085129 0.006332037707073512
199.099716 0.006274518180674108
200.107468 0.02522430685110318
201.10022 0.006942362346251078
202.086258 0.0009652214038521869
204.101242 0.017970155215219538
205.088531 0.0007055471213600241
206.117203 0.0015579170159230006
207.102585 0.004038333997746058
208.076096 0.0012205205993251556
209.083679 0.001347655480941735
210.051254 0.0008392446335053944
210.09108 0.008788263031261026
211.099579 0.0047579071333734985
212.109833 0.007486288605960876
213.101303 0.006115084862533479
214.087021 0.0012960551899212408
214.108047 0.007989938329288094
215.117294 0.009793246255375887
218.095993 0.001178313877492931
219.103241 0.0013251366506958832
221.081955 0.0011029079659268222
222.090714 0.004838460206138659
222.113403 0.0024559679661275615
223.100647 0.005433858077838975
224.105911 0.011492838883302789
224.128082 0.007879017005448527
225.100555 0.0009797621342395083
226.085464 0.0023411862713887065
226.123734 0.005063519829567199
227.116211 0.010256876800380479
228.123947 0.0012546205422688738
230.095596 0.0015794064139290416
231.103455 0.001221550031564966
232.072983 0.0008784917376481642
233.082932 0.0009665081941519499
234.090942 0.0055738608624531834
235.098145 0.004106919920723423
236.104904 0.006901056377628687
236.12822 0.02645537913088639
237.113419 0.006896037895459612
238.12442 0.010833744891764207
239.115265 0.005332587681247631
240.099014 0.0007458236577426044
242.116974 0.000777092662026844
245.119049 0.00324888814884149
246.091049 0.0012662016549667404
247.099121 0.006590939915385817
248.106812 0.011533758814835251
249.106262 0.0033182461459987126
250.084335 0.0009995787048558576
250.119797 0.008098672109618062
251.117142 0.020984461492414244
252.126526 0.0016026973183547511
253.133286 0.009748980669064043
256.110443 0.0007948503681635727
257.119507 0.0014948642912346161
258.090118 0.001578248302659255
259.099335 0.0010798744195610656
260.105927 0.008433623624646358
261.113922 0.009839828064227308
262.122009 0.016253319597275814
262.150665 0.001063532182754076
263.127167 0.0014294953440066585
264.099426 0.00277380517016901
264.128998 0.003430582939168018
265.13327 0.016267474290573205
266.143311 0.004727152845209164
267.148926 0.002880866123109287
272.10495 0.001243425466660936
273.11377 0.006087933587208481
274.088989 0.0012076526963275263
274.120209 0.008544416269455948
275.092163 0.0011914391385505132
275.127106 0.0015496815580045176
276.101501 0.0016948315038177782
276.137177 0.01721159233350928
277.140381 0.004725866054909401
278.116241 0.0009218565707501756
279.150269 0.0010332926107096468
280.131409 0.0008541714009826446
284.105072 0.0007404191384836
286.119995 0.0007684711670184322
288.104614 0.001190924422430608
288.137726 0.007712506340659202
289.105835 0.0015893146992372164
289.139923 0.0029395437607784773
290.115906 0.0035470374612965646
290.1474 0.0010906834580790743
291.147736 0.004279221141861682
301.1091 0.001165574653525278
302.117462 0.001362968285508914
304.13205 0.006113283356113811
305.163757 0.004365564770975776
306.110504 0.002250853592345348
308.124664 0.0009719127134109542
308.162842 0.0009228860029899859
311.139923 0.000818141272589282
316.131653 0.0010523371071461385
318.1073 0.0009088599887225698
320.128296 0.0007474964851322962
322.138733 0.0010515650329662807
333.158661 0.004174347732431001
334.143036 0.0011041947562265852
335.136993 0.0012165315493958906
336.158417 0.007190455516045374
337.192108 0.0013907629559837937
348.157074 0.0043178248508545704
349.153107 0.0015785056607192077
350.160004 0.008351526403521482
363.168793 0.0011439565764892604
365.184723 0.03306497750561877
368.185974 0.003438947076116477
380.186737 0.002736359572445908
381.177399 0.001309695167098728
382.187317 0.0028829249875889076
395.197479 0.0008590612041217438
397.211182 0.18528635073219654
413.203064 0.0026285265453257728
434.177185 0.0031863501402730108
436.195251 0.010000290814607746
448.195587 0.03366603725463804
548.854004 0.0008329393610365559
577.250977 0.01701291191122588
591.270996 0.0008308804965569352
594.257141 0.0032805431902156582
609.279175 1.0
END IONS

BEGIN IONS
CHARGE=1+
PRECURSORTYPE=M+H
FORMULA=C17H11NO
ONTOLOGY=
INCHIKEY=UKHKOHUEPNXICX-UHFFFAOYSA-N
INCHI=InChI=1S/C17H11NO/c1-10-6-7-11-9-14-16(18-15(11)8-10)12-4-2-3-5-13(12)17(14)19/h2-9H,1H3
SMILES=Cc1ccc2cc3c(nc2c1)-c1ccccc1C3=O
IONMODE=positive
INSTRUMENTTYPE=LC-ESI-Orbitrap
INSTRUMENT=Orbitrap
COMMENT=DB#=CCMSLIB00010114968; origin=GNPS
NUM_PEAKS=21
COMPOUND_NAME="3-methylindeno[3,2-b]quinolin-10-one "
PRECURSOR_MZ=246.091
COLLISION_ENERGY=205060
PARENT_MASS=245.08372354800926
55.12759 0.00026508038252071704
60.119678 0.0002517926626558936
73.947647 0.0002955073352546606
125.014359 0.0004962674506036235
133.148575 0.00026864303204969146
137.818024 0.0003037880882138984
140.049164 0.0013897221797753393
157.967163 0.0003053286934156171
189.069168 0.00028347135711623354
191.085602 0.0006038209512486076
203.072479 0.005295830380907896
217.088364 0.013107757919697687
218.096024 0.03290549764003355
228.08255 0.0005836005079760501
229.08667 0.00047883935425918124
231.067673 0.0019879584371677167
245.080505 0.003756573208740739
246.090744 1.0
247.089966 0.0008207574212156165
281.171936 0.00029589248655509024
308.897644 0.00035356889379443263
END IONS

BEGIN IONS
CHARGE=1+
PRECURSORTYPE=M+H
FORMULA=C27H30O14
ONTOLOGY=
INCHIKEY=TWEOMCKJOCRJRY-UHFFFAOYSA-N
INCHI=InChI=1S/C27H30O14/c1-9-19(32)21(34)24(37)27(38-9)41-14-5-3-2-4-10(14)15-7-13(31)17-11(29)6-12(30)18(25(17)39-15)26-23(36)22(35)20(33)16(8-28)40-26/h2-7,9,16,19-24,26-30,32-37H,8H2,1H3/t9-,16+,19-,20+,21+,22-,23+,24+,26-,27?/m0/s1
SMILES=CC1OC(Oc2ccccc2-c2cc(=O)c3c(O)cc(O)c(C4OC(CO)C(O)C(O)C4O)c3o2)C(O)C(O)C1O
IONMODE=positive
INSTRUMENTTYPE=LC-ESI-Orbitrap
INSTRUMENT=Orbitrap
COMMENT=DB#=CCMSLIB00010125108; origin=GNPS
NUM_PEAKS=88
COMPOUND_NAME=CHEMBL1327126
PRECURSOR_MZ=579.171
COLLISION_ENERGY=205060
PARENT_MASS=578.1637235480093
50.07967 0.00280873892692707
57.033932 0.005053901354162943
68.997162 0.003324935101422989
69.033829 0.0035011566617984074
71.049217 0.01484334152652758
71.430206 0.0027505525626521678
79.017937 0.013761075151014397
85.028641 0.04086345239648854
85.596428 0.0030830460727944665
109.028107 0.004442113295501113
111.280548 0.0027646835368332155
119.048943 0.01687238317217096
121.028427 0.12490368078628065
145.028351 0.011494300645619274
163.038818 0.01253084916348789
165.017609 0.017011199212655367
167.034546 0.004135388032394842
171.028824 0.006779542671801475
175.038956 0.003407227245183208
177.01825 0.003694002897680941
183.028122 0.014666288732376805
187.039291 0.004684002324129636
191.033585 0.004142869136373044
193.65004 0.0027979328878474452
195.028427 0.005443749994804789
199.03833 0.0034720634796609564
205.049561 0.005081332068749683
213.05394 0.01913915767756608
217.048935 0.040065467972147016
219.027679 0.0037588391321586893
222.664658 0.003173650554308243
227.069626 0.0044379571266243345
233.042923 0.006732993580381553
235.0578 0.003732239651347305
239.069519 0.0037081338718619886
241.049377 0.005412994345116626
243.02681 0.005682314088331889
243.064651 0.02290215297860155
253.870438 0.002778814511014263
255.064194 0.030942677287617692
256.073395 0.04070551797917094
259.059875 0.020387670808150415
261.039825 0.026966054906315796
267.064392 0.005696445062512936
270.052002 0.00566236447772335
271.059692 0.07396983120135724
281.080109 0.004826974533490825
283.059753 0.6252540458225931
284.067505 0.36159999202015575
285.075897 0.03324020744270098
289.071075 0.003937554393860175
294.050537 0.0030581090595337944
295.059784 0.13337312172338037
295.097107 0.004381433229900144
297.075348 0.17694224005865186
299.054443 0.004418838749791152
305.077148 0.0038228441328610817
307.060394 0.0063389887708629284
308.066956 0.034763858952928064
309.075012 0.05972082182420902
311.05426 0.01309775059828051
311.091614 0.0045343802445656015
313.070099 0.7740465540788226
316.060455 0.020385177106824345
321.075562 0.006365588251674313
322.080292 0.002930930291904365
323.053833 0.021514823807532807
323.091278 0.18053233873441332
325.070312 0.04995881236643112
327.085754 0.01778507785751157
336.063202 0.0033191164649954987
337.070129 0.14380011820144287
341.062317 0.003417202050487477
343.080688 0.02421550234366363
349.069458 0.011263217656070376
351.087158 0.029517111362882587
355.082092 0.01144193291777186
356.785522 0.003898486406418455
367.080688 0.0425940811167792
369.094116 0.003562667961174733
379.080109 0.030766455727242275
397.091492 0.06699162365724574
406.243408 0.0033265975689737008
415.038116 0.00412624446086593
415.101654 0.13393171082041944
433.112427 1.0
459.128174 0.004009871732316125
579.169922 0.28320633466635525
END IONS

BEGIN IONS
CHARGE=1+
PRECURSORTYPE=M+H
FORMULA=C15H19N3O3S
ONTOLOGY=
INCHIKEY=LFHPZXGAKBLCRH-UHFFFAOYSA-N
INCHI=InChI=1S/C15H19N3O3S/c1-9(2)5-13-17-18-15(22-13)16-14(19)10-6-11(20-3)8-12(7-10)21-4/h6-9H,5H2,1-4H3,(H,16,18,19)
SMILES=COc1cc(OC)cc(C(O)=Nc2nnc(CC(C)C)s2)c1
IONMODE=positive
INSTRUMENTTYPE=LC-ESI-Orbitrap
INSTRUMENT=Orbitrap
COMMENT=DB#=CCMSLIB00010115692; origin=GNPS
NUM_PEAKS=54
COMPOUND_NAME="(3,5-dimethoxyphenyl)-N-[5-(2-methylpropyl)(1,3,4-thiadiazol-2-yl)]carboxamide "
PRECURSOR_MZ=322.122
COLLISION_ENERGY=205060
PARENT_MASS=321.11472354800924
51.02346 0.0016960100147592608
53.039028 0.012796140442702584
53.61034 0.000706337735247029
55.054691 0.001014126049307735
57.070431 0.006744302683119351
61.909988 0.0006541383420297052
65.038857 0.0038914412511112943
66.046677 0.00479035242349791
67.054428 0.0006943459827511572
68.026047 0.010610114502425744
68.997414 0.0008674034305347169
69.033958 0.0011904753507176124
73.956543 0.0007761720586053404
77.038696 0.004872883896557732
79.017967 0.009662295790448123
79.049599 0.0012459665975612538
79.054443 0.026877749726482235
81.033684 0.004466339973707495
81.070122 0.0066312039978151495
83.049026 0.0030404970887081663
84.080963 0.01839511319626525
92.025711 0.01168020206338088
93.033409 0.003096458600355567
94.041344 0.018191018271433552
95.049004 0.010796104232312694
96.020149 0.001163670256903311
98.035919 0.0009870858230915536
105.033188 0.003922478728159433
105.044479 0.003867692878521431
107.012611 0.010496075287514024
107.049042 0.006025032665768931
109.064667 0.041485585325668956
109.270233 0.0007352590206782489
111.044144 0.001018123300139692
122.036057 0.25554659701104393
125.024147 0.0008744574025911121
125.059464 0.05676707525624141
135.054977 0.015321932703695787
137.05954 0.018749222593496286
142.006531 0.001111941128489747
148.075012 0.0007533642156229962
151.038406 0.0008032122848215216
155.070038 0.6377296273645209
157.074524 0.0010063666800457004
159.058884 0.00573911166508305
164.070068 0.003919422006934995
165.054398 1.0
178.086319 0.011831627330191495
180.064865 0.008580216476997115
184.053604 0.011786481909030566
185.410126 0.0008509441624031283
253.714005 0.0007394914039120859
263.137268 0.0010209448889622501
322.121124 0.6115617423593138
END IONS

BEGIN IONS
CHARGE=1+
PRECURSORTYPE=M+H
FORMULA=C30H48O3
ONTOLOGY=
INCHIKEY=MIJYXULNPSFWEK-UHFFFAOYSA-N
INCHI=InChI=1S/C30H48O3/c1-25(2)14-16-30(24(32)33)17-15-28(6)19(20(30)18-25)8-9-22-27(5)12-11-23(31)26(3,4)21(27)10-13-29(22,28)7/h8,20-23,31H,9-18H2,1-7H3,(H,32,33)/t20-,21-,22+,23-,27-,28+,29+,30-/m0/s1
SMILES=CC1(C)CCC2(C(=O)O)CCC3(C)C(=CCC4C5(C)CCC(O)C(C)(C)C5CCC43C)C2C1
IONMODE=positive
INSTRUMENTTYPE=LC-ESI-Orbitrap
INSTRUMENT=Orbitrap
COMMENT=DB#=CCMSLIB00010125076; origin=GNPS
NUM_PEAKS=42
COMPOUND_NAME=OLEANOLIC ACID
PRECURSOR_MZ=457.368
COLLISION_ENERGY=205060
PARENT_MASS=456.3607235480092
58.233101 0.04332703614117481
64.076378 0.041843959109447555
67.054443 0.09380462225674889
69.070007 0.1608785465845089
75.864182 0.04774095587845831
79.054283 0.06859231271738554
81.070091 0.3781493317325518
83.085228 0.05224315401048747
91.053833 0.07475414467063331
92.37825 0.08236374229771005
93.069733 0.22452726919613694
95.085403 0.676371404862374
105.069656 0.2238916647539681
107.085503 0.4223061847843359
109.101257 0.42539592860043435
112.269142 0.04555165168876569
118.65519 0.046151944773036246
119.085716 0.3573685976094211
121.101097 0.3331273504122601
123.116318 0.06657956531718427
126.834633 0.04496901428344427
126.962334 0.04461590070446159
129.511505 0.03983121170924628
133.101105 0.2264870495594908
135.116394 0.22348558413813804
136.216125 0.04710535143628948
147.116669 0.0968237433570508
149.132263 0.16857642260633132
161.131927 0.09089143523014177
163.147629 0.2937375306767422
175.147659 0.17855188121259202
177.162979 0.18993979413478346
189.163086 0.32415826550610005
191.179016 0.2518759158883455
203.179337 0.36658486202086904
221.189087 0.08803121524038207
231.209793 0.05302000388424937
284.015839 0.05722205547414326
393.352997 0.05413231165804481
411.361237 1.0
439.356659 0.33777079397588233
457.363251 0.06973993184907926
END IONS

BEGIN IONS
CHARGE=1+
PRECURSORTYPE=M+H
FORMULA=C15H8N2O2
ONTOLOGY=
INCHIKEY=VQQVWGVXDIPORV-UHFFFAOYSA-N
INCHI=InChI=1S/C15H8N2O2/c18-13-10-6-2-4-8-12(10)17-14(13)16-11-7-3-1-5-9(11)15(17)19/h1-8H
SMILES=O=C1c2ccccc2-n2c1nc1ccccc1c2=O
IONMODE=positive
INSTRUMENTTYPE=LC-ESI-Orbitrap
INSTRUMENT=Orbitrap
COMMENT=DB#=CCMSLIB00010119107; origin=GNPS
NUM_PEAKS=44
COMPOUND_NAME="Indolo[2,1-b]quinazoline-6,12-dione "
PRECURSOR_MZ=249.066
COLLISION_ENERGY=205060
PARENT_MASS=248.05872354800925
51.02343 0.0012402506996313217
53.03899 0.005957321958636514
55.93502 0.0006496349094268818
58.961121 0.0006358354750763108
63.215279 0.0005897665942444046
65.03894 0.00651354531245953
78.034088 0.003736462224154615
81.033882 0.000686999531668428
82.398521 0.0005717211800936578
82.973824 0.0005441223113925158
84.959961 0.0011190279763363053
90.033981 0.0037562060302254317
93.03363 0.0024070459487196038
95.049377 0.0024240298679203062
102.033791 0.0007496277337210196
105.033577 0.0025335761467648395
111.043991 0.0012474688652916203
118.654549 0.0007829586751523989
120.043854 0.0006025045336449316
121.028374 0.02134560195043328
121.038353 0.0014676229179307301
129.04422 0.00479264969944832
130.028748 0.22673128764857214
137.77887 0.0005634415194833152
146.02359 0.0336419594517421
154.98555 0.0006978267801588761
166.065155 0.005897453643454037
170.060379 0.0007088663276393329
171.018631 0.0027295281145429478
178.064728 0.0013190136249245808
192.067856 0.005224678144116197
193.075943 0.006526495550850066
194.059494 0.0025804942235567807
196.075974 0.003826264696928331
203.059235 0.000667255725597611
205.076111 0.008424023923548586
206.060242 0.0051826429440944575
213.560089 0.0006865749336884105
220.061295 0.000937724638868803
221.070694 0.0983880562286613
231.055038 0.0014245262229589468
248.055618 0.002270537698143955
248.540176 0.0006071751114251249
249.065521 1.0
END IONS

BEGIN IONS
CHARGE=1+
PRECURSORTYPE=M+H
FORMULA=C13H15N3O2
ONTOLOGY=
INCHIKEY=HNGIZKAMDMBRKJ-UHFFFAOYSA-N
INCHI=InChI=1S/C13H15N3O2/c1-8(17)16-12(13(14)18)6-9-7-15-11-5-3-2-4-10(9)11/h2-5,7,12,15H,6H2,1H3,(H2,14,18)(H,16,17)/t12-/m0/s1
SMILES=CC(O)=NC(Cc1c[nH]c2ccccc12)C(=N)O
IONMODE=positive
INSTRUMENTTYPE=LC-ESI-Orbitrap
INSTRUMENT=Orbitrap
COMMENT=DB#=CCMSLIB00010123665; origin=GNPS
NUM_PEAKS=31
COMPOUND_NAME=2382-79-8
PRECURSOR_MZ=246.124
COLLISION_ENERGY=205060
PARENT_MASS=245.11672354800925
78.736801 0.0009193443269843302
82.394386 0.0009301889518460176
92.373833 0.0011110493084102865
114.189499 0.0009651716126901701
115.053886 0.01149005495426192
117.057114 0.005518864574773514
118.064857 0.019868402226436467
130.064987 0.1397571293788234
132.080643 0.3062455593884891
142.065002 0.04299648879033107
142.074341 0.0011432333563869068
144.080505 0.022965767017577736
145.075897 0.009053512626466692
146.05983 0.02035536086538707
156.080719 0.007362100974651914
157.995651 0.0009343868711473158
158.060059 0.003946743796437296
158.083649 0.023769668563776363
159.091522 1.0
160.075424 0.053336663682645696
160.090546 0.0018554803311738536
169.075775 0.12306060501112623
170.059738 0.17270449901506318
183.0914 0.03380514448013842
184.075333 0.01596258814318683
187.086288 0.17470340825569805
188.070267 0.013768125828433137
201.101974 0.5139572071102958
204.112701 0.00208846485239591
211.085999 0.02756073951945718
229.096741 0.22728689525036916
END IONS

BEGIN IONS
CHARGE=1+
PRECURSORTYPE=M+H
FORMULA=C20H21NO4
ONTOLOGY=
INCHIKEY=XQYZDYMELSJDRZ-UHFFFAOYSA-N
INCHI=InChI=1S/C20H21NO4/c1-22-17-6-5-13(10-18(17)23-2)9-16-15-12-20(25-4)19(24-3)11-14(15)7-8-21-16/h5-8,10-12H,9H2,1-4H3
SMILES=COc1ccc(Cc2nccc3cc(OC)c(OC)cc23)cc1OC
IONMODE=positive
INSTRUMENTTYPE=LC-ESI-Orbitrap
INSTRUMENT=Orbitrap
COMMENT=DB#=CCMSLIB00010115060; origin=GNPS
NUM_PEAKS=164
COMPOUND_NAME=papaverine
PRECURSOR_MZ=340.154
COLLISION_ENERGY=205060
PARENT_MASS=339.1467235480092
64.445686 0.000324397081153461
71.452499 0.00022607682348465522
75.044357 0.00032678784729738334
82.381111 0.00024390795430807592
82.995422 0.0003809287389316244
91.054367 0.003103762338719165
95.049156 0.014089108635716273
102.046173 0.00041997791928235573
103.054062 0.0016679080387818131
106.307373 0.00023028556805051848
107.049248 0.0019095746498299618
108.056877 0.0013831827333290632
113.987839 0.00026276014150546345
115.054077 0.008535309075756704
116.049606 0.0028619961124150195
116.061943 0.0004102156241946729
117.069656 0.0027267434985854136
118.041054 0.00035973559321831293
118.065117 0.00046420709294491886
119.08567 0.0004167404234624609
121.064697 0.0013794969688571829
121.454071 0.0003091808507999553
123.0439 0.041323321933695485
124.052338 0.0002840529024747717
127.040947 0.0004918005188560224
128.049271 0.004946295921263305
129.057709 0.000976578162164273
129.070145 0.00028206059735483643
130.065125 0.0020719226132906872
131.049011 0.00266498203986742
131.073074 0.002460447015492065
132.056808 0.0014368255486833204
132.081238 0.000256957552843652
133.0289 0.00038787690303739865
133.064484 0.0030968390784273897
135.043716 0.0016190965633433988
136.051651 0.0031062278163050848
138.067368 0.0013795467764851812
139.075226 0.0002872903982946665
140.049149 0.0023876033595444314
141.057266 0.001992056081795282
142.065002 0.013740928412193584
143.0495 0.00042827088934408635
143.072845 0.0014744054040080996
144.044312 0.0022415922980671753
144.057083 0.0011852721234774928
144.08049 0.0036196697495264043
145.06459 0.004705177194123138
146.05986 0.002285248684007757
146.072464 0.0011641785930201782
147.043884 0.0005705463787214641
147.080338 0.004244531346580103
148.051682 0.013250796448875508
148.07428 0.00037422961296584205
149.059387 0.000830367870175023
151.075287 0.005105506004160132
154.064392 0.00029037847123056617
155.036453 0.0019470797937127433
155.060303 0.0003951986243531608
155.073029 0.0024671959490858457
156.044235 0.010528137175785962
157.052322 0.002749879141790662
157.088196 0.002532842402787713
158.059906 0.025383486360629343
159.044617 0.00041950474681637113
159.067688 0.014497481377675005
160.052414 0.002717678510289708
160.075684 0.005126674246059445
160.34787 0.0002285423010705751
161.059448 0.005823557673198804
162.067596 0.0027053262185461092
163.0755 0.0010106714835291654
170.05983 0.01547186800420735
171.067734 0.2601684513901956
172.040359 0.0027346131038091578
172.075455 0.0264158490661518
173.045609 0.0003879018068513978
173.060257 0.0004864960064741947
173.083633 0.000366658853510088
174.05336 0.0037892647228608945
174.07074 0.0023225047897505466
174.091187 0.0069391738289205605
175.075378 0.018664910516113613
176.070297 0.0012531848242532866
182.72612 0.0002574307253096366
186.054794 0.024240849566718462
187.062546 0.053480317967912534
188.070389 0.012217811148003068
189.078323 0.0004807183216263824
190.085815 0.005498438381439367
202.08606 0.509757413940139
203.093674 0.02606348500187725
204.065186 0.007196853592370189
220.075867 0.0011530216843485407
220.111908 0.00046779324216080235
221.083527 0.0003501227210146252
223.099426 0.0005433265100203484
224.106888 0.0016382475963087767
227.094238 0.0008551969727322164
234.09108 0.001640638362452699
235.099503 0.0011519259165325762
236.10643 0.003048724909780953
237.079391 0.0005463896791422489
238.086426 0.0003637451072721826
239.092285 0.0003783138384617093
240.101242 0.005417227043988005
241.109406 0.003182931563422593
243.111954 0.0011805653026316458
247.099106 0.00039343045355921824
248.070847 0.0005459912181182619
248.106552 0.002407277372603792
249.082489 0.0006263309220796518
249.114594 0.0029819079768211238
250.085648 0.0014356301656113593
250.120117 0.0004513069172933379
251.093842 0.0016283607821510977
252.071243 0.0003687258700720208
252.101135 0.010405137238443957
254.11734 0.0020547140778172466
262.085266 0.0010430962493561118
263.093292 0.0013491143157781699
264.101227 0.010678008328433092
265.110016 0.0013594743024018334
266.081879 0.0016482589295364514
266.116638 0.010990376867424944
267.088837 0.0027904225509813446
267.124939 0.002653625900683789
268.131836 0.0003727104803118914
277.108398 0.00036182751359424494
278.080933 0.0014572217723486578
278.117218 0.00595572221409251
279.089569 0.001015851476840997
279.126404 0.00033453293345113167
280.096527 0.029448984188369262
280.132294 0.001792725954545758
281.104065 0.008806113149183907
282.078308 0.0006639605850324293
282.111786 0.01236332413320034
290.080475 0.00027847444813895294
291.086914 0.0003200140098896034
292.096252 0.0051313312592772935
293.104126 0.0009003973951407479
294.076019 0.002469088638949784
294.111633 0.021512910685061087
295.083466 0.002460222881166072
295.120422 0.002309380479772973
296.127502 0.10722005896625464
306.110443 0.002553437856965044
307.120178 0.0003484292616626802
308.091064 0.028967518752322903
308.128296 0.008089356478473192
309.098816 0.01782537804238689
309.132263 0.0005914157748527861
310.106628 0.03503266832512786
311.113953 0.0035190334371556736
322.106537 0.005576063569674845
323.115326 0.00031983968319160906
324.122467 0.6656226655787353
325.129425 0.011959209943435469
338.138336 0.000270530131473211
338.540405 0.0002947366386804246
339.14325 0.00030833412112398287
340.153656 1.0
341.78421 0.0003327149550291908
END IONS

BEGIN IONS
CHARGE=1+
PRECURSORTYPE=M+H
FORMULA=C20H21NO4
ONTOLOGY=
INCHIKEY=XQYZDYMELSJDRZ-UHFFFAOYSA-N
INCHI=InChI=1S/C20H21NO4/c1-22-17-6-5-13(10-18(17)23-2)9-16-15-12-20(25-4)19(24-3)11-14(15)7-8-21-16/h5-8,10-12H,9H2,1-4H3
SMILES=COc1ccc(Cc2nccc3cc(OC)c(OC)cc23)cc1OC
IONMODE=positive
INSTRUMENTTYPE=LC-ESI-Orbitrap
INSTRUMENT=Orbitrap
COMMENT=DB#=CCMSLIB00010115061; origin=GNPS
NUM_PEAKS=180
COMPOUND_NAME=papaverine
PRECURSOR_MZ=340.154
COLLISION_ENERGY=205060
PARENT_MASS=339.1467235480092
50.937859 0.0002107523140625018
52.225842 0.00026052272644726444
55.01841 0.0002709373553269361
60.53252 0.0002585863381631044
64.588516 0.0002766418505424347
64.704483 0.0002950637066512007
69.968536 0.00023587302693809178
75.04451 0.00035027694015900783
78.312393 0.0003023905812399144
82.995323 0.000372833246928548
82.999947 0.0002620927710019888
91.054283 0.0038521043150162517
95.049133 0.015305631676549051
95.713493 0.0002530911822215691
103.054291 0.0016719404463259857
104.274872 0.00027015233304957393
107.049088 0.0013006249091336713
108.057083 0.0012471910594545519
114.046669 0.0003588598503915011
115.054039 0.008147484542649684
116.049438 0.002364487099414907
116.062187 0.0006539758918611925
117.069763 0.0032626049195357398
118.041397 0.00035917385930244594
118.064911 0.0005216734707164187
119.049057 0.0003102408040135363
119.085373 0.0003419033692004778
121.064293 0.0019782038041342206
123.043869 0.04042111107028995
127.041443 0.0010382704640392285
128.049423 0.0050288527087821696
128.060684 0.0003976399508931931
129.057266 0.0004017744015539673
129.069824 0.0003412753513785881
130.041382 0.00027774088173074176
130.064774 0.0020332076983680643
131.049042 0.002411169757508712
131.07312 0.002763278416314898
132.044357 0.00035697579692583185
132.05687 0.0014183259159195087
133.028137 0.001107614098539555
133.064636 0.0031357976543325014
134.060837 0.00025806298997819625
134.072449 0.00037142020682929606
135.043701 0.0017282003762036093
136.052094 0.002719526508056579
138.067505 0.001344847830758408
139.075439 0.0003320120885057143
140.049271 0.0024495311794624774
141.057266 0.0014635955339140614
142.06488 0.01549183896073936
143.048721 0.0005190043949733872
143.072845 0.0017279387021111553
144.04425 0.0027359073062442033
144.056061 0.0004948780436491226
144.080627 0.003919145217502982
145.064575 0.004596881116959004
146.059769 0.0023440241853849996
146.072601 0.0017243799344537798
147.043869 0.0004138114098068542
147.080429 0.005231964139345013
148.051636 0.013669069567522854
148.073975 0.00042877916789522654
149.059433 0.0004235456860461453
151.075165 0.00508301924592016
154.064011 0.0004362630469394127
155.035721 0.002152949763075043
155.072861 0.0019446048506631189
156.044189 0.012847726926128043
157.052338 0.003094871826272686
157.088226 0.0025918295509389966
158.05986 0.028212863291301148
159.067703 0.015567358103821604
159.083282 0.0002941740147368569
160.051956 0.002866325673923308
160.075333 0.005766040962043755
161.059799 0.0057730538277215235
162.0672 0.0030680240643868994
163.074875 0.0017952936135088309
170.046829 0.0003030185990618042
170.059677 0.01694481052649979
171.067657 0.2736774494186596
172.03981 0.002742396823737064
172.075378 0.027538319815773066
173.060287 0.0005758923426729004
173.083466 0.0006312102458176891
174.053299 0.004003142601180737
174.067871 0.002283839144120565
174.091049 0.008107396071685723
175.075424 0.01877160970074009
176.069901 0.0006297448708999464
183.067261 0.0004058565173962507
186.054718 0.02623288010333824
187.062485 0.056687505344693336
188.070221 0.014124330153574432
189.078873 0.00034075200319367996
190.086136 0.005372797135903789
196.074692 0.00030997912992108224
201.077194 0.0009681941420800306
201.339462 0.0003029662642433134
202.085983 0.5330606898629235
202.836243 0.0003073623889965416
203.093643 0.027980235023109486
204.065063 0.008191341120544985
209.083664 0.00034912557415221
218.079605 0.0005425027284757621
220.075195 0.0010600417485314064
220.112289 0.0005990243324458395
223.098984 0.0004639481659210525
224.106689 0.0016086676507705935
227.093475 0.0005689841466321132
233.082428 0.0003514283061658057
233.120453 0.0006508358027517439
234.090118 0.0014272751698814375
235.099411 0.00046536120602030446
236.106094 0.003291650743798141
237.078308 0.0010726021049692015
238.08577 0.0006499461108374
240.101395 0.006073612690314259
241.109024 0.003568815942525484
243.111023 0.0016153665075374175
247.09819 0.00041281704825552875
248.06926 0.0002814043190250986
248.106613 0.002321624883070932
249.07988 0.0004510738005723126
249.114105 0.0033238366571699905
250.085297 0.001405085206841333
250.12085 0.0005182193726960251
251.093933 0.0017010386054068776
252.101151 0.011658941524109238
253.110016 0.00043678639512432084
254.117142 0.002629301280978418
260.106659 0.0003539403774533647
262.085114 0.0010551222755932701
263.093567 0.0011690028406292781
264.101532 0.012476202049661765
265.077454 0.0003391819586389556
265.10965 0.0014216230094844298
266.082031 0.0015873673796448328
266.116852 0.012631165447213061
267.088684 0.0031296221457505855
267.124695 0.0031040304195085783
268.097565 0.00026852995367635874
268.130188 0.0006383277811324396
277.109283 0.000327354289660032
278.08136 0.0010776262475443194
278.115662 0.0063194293327656055
279.088715 0.0010578960209732832
279.12442 0.00033578019543705276
280.096436 0.03259763138891689
280.130493 0.00161939628856121
281.103882 0.008846677717686938
282.076996 0.00047247874133505495
282.111938 0.013723707118027261
291.088715 0.0004864521378721019
292.095978 0.005507663963154613
293.103546 0.0005243948812779409
294.075531 0.0029649244719599987
294.11142 0.023068664642565226
295.082886 0.0029119616356472963
295.119385 0.0017176287428684652
296.127441 0.11980575618108225
297.132904 0.0004203009272997149
306.110931 0.0027571029077329825
307.118896 0.0003961745759754504
308.090942 0.030682334036608624
308.128113 0.007530875711190932
309.098663 0.018921496620897774
309.134644 0.0008336413237401517
310.106598 0.036074285716080054
311.114227 0.00441433727006305
315.739929 0.00031584062959205325
322.106476 0.006874073739131236
322.605042 0.0003590168548469735
324.122375 0.7091936261633899
325.129181 0.012546592380531909
338.136444 0.0005152886228605395
338.525421 0.00045055045238740453
340.153564 1.0
341.791931 0.00046672191130106555
END IONS

BEGIN IONS
CHARGE=1+
PRECURSORTYPE=M+H
FORMULA=C20H21NO4
ONTOLOGY=
INCHIKEY=XQYZDYMELSJDRZ-UHFFFAOYSA-N
INCHI=InChI=1S/C20H21NO4/c1-22-17-6-5-13(10-18(17)23-2)9-16-15-12-20(25-4)19(24-3)11-14(15)7-8-21-16/h5-8,10-12H,9H2,1-4H3
SMILES=COc1ccc(Cc2nccc3cc(OC)c(OC)cc23)cc1OC
IONMODE=positive
INSTRUMENTTYPE=LC-ESI-Orbitrap
INSTRUMENT=Orbitrap
COMMENT=DB#=CCMSLIB00010115062; origin=GNPS
NUM_PEAKS=119
COMPOUND_NAME=papaverine
PRECURSOR_MZ=340.154
COLLISION_ENERGY=205060
PARENT_MASS=339.1467235480092
55.688122 0.0005698390503251197
67.132393 0.0005671377175017221
77.181419 0.000514106288916076
91.054176 0.003000185538912344
92.375397 0.00057808522420707
95.04921 0.015950659445103585
103.054283 0.0012865453009960099
107.048897 0.0009950857068925928
108.056953 0.0007272272311409648
115.054047 0.008684358500987763
116.049362 0.0024020535816474294
117.069878 0.002611904489401889
118.065277 0.0012855500731137055
121.06411 0.0022492150140078324
123.043922 0.04113106227069772
127.041809 0.0006895507470251573
128.049103 0.0048103628814122
129.056671 0.0007447148067871698
130.064957 0.0021019212874267886
131.049057 0.0027296257303373182
131.072739 0.0028500483040961445
132.056656 0.0019590349986102354
133.028381 0.0006685087860850081
133.064651 0.003684191444878948
135.043625 0.0020505959637822356
136.051956 0.0027968747000987407
138.067368 0.0009909626199516178
140.049423 0.0012238459444108357
141.057465 0.0011497725548850406
142.064941 0.013290557491115814
143.073212 0.000634813213498418
144.044632 0.0023451834169443235
144.080841 0.0037003994418193333
145.064514 0.003995271245804937
146.059647 0.002979143577972195
146.072464 0.0011216218233570032
147.043671 0.000610643393499598
147.080231 0.0034567107860665252
148.051758 0.013272785564646094
151.075226 0.005218406313156984
155.036453 0.0022945689703585594
155.072433 0.0021852360787168383
156.044098 0.011193896693924062
157.052368 0.002290445883417584
157.088486 0.0027139864350439642
158.059891 0.028378496537673284
159.06778 0.014814109203512017
160.051361 0.0023763198321192737
160.075302 0.005310251629152499
161.05986 0.004852588978704256
162.067398 0.003082647277731847
163.075455 0.0009933796019514997
170.059601 0.015513896580183734
171.067734 0.26117395659242504
172.038986 0.003646941486998414
172.075439 0.025819481301445284
174.053131 0.004492316485310081
174.068497 0.0018742984532026078
174.091293 0.007271419258939101
175.075485 0.018749951127202208
176.069962 0.0009356563847778474
185.382523 0.0007775573269032134
186.054764 0.0264341056064741
187.062515 0.053258056191987986
188.070435 0.01382058742614876
190.085876 0.005895729974770973
201.078094 0.0006895507470251573
202.086075 0.5149129922023895
203.093811 0.024972400198192524
203.115021 0.0009831429723049408
204.065475 0.008355364598180298
218.079056 0.0006356662659689645
221.082169 0.0006542912449092317
224.106934 0.0007539562085514245
227.092621 0.0008487872081938534
234.09021 0.0011964060899415873
236.106339 0.003138948740787922
240.101715 0.006091078990526142
241.110107 0.004517055006955932
248.07373 0.0004991778706815107
248.105499 0.002994498522442033
249.114044 0.003231647109253984
250.085495 0.001057785063477767
251.092468 0.0008240486865480023
252.101273 0.013186769440532646
254.11702 0.0026417613258710197
262.085693 0.0011918564767653388
263.093292 0.0008456593491351825
264.102051 0.011188920554512542
265.10907 0.0008135277060779278
266.08374 0.002198742742833826
266.116516 0.012132538762348823
267.088226 0.0037908230036972717
267.12439 0.002359827484355373
268.130157 0.00062514528549889
278.080505 0.002365941027060957
278.117371 0.00679897036566805
280.096619 0.03221438914689777
280.133026 0.0019746742939035894
281.10434 0.008317403763240973
282.112 0.012033158149530146
290.695679 0.0005423991958558711
292.095001 0.005150162115513257
294.075409 0.003911814279103129
294.111176 0.022639728217482884
295.082611 0.002381580322354311
295.118652 0.0022256138956560437
296.127533 0.11566652188470569
306.110687 0.0029519880743264617
308.090546 0.03254423610217578
308.128204 0.00977527043540509
309.098785 0.020545342226879256
309.138184 0.0013402876066404448
310.106689 0.03602753369024101
311.114746 0.004244646918028056
322.107178 0.006468128182507733
324.122467 0.7328713106369246
325.129883 0.011406022408266648
340.153717 1.0
END IONS

BEGIN IONS
CHARGE=1+
PRECURSORTYPE=M+H
FORMULA=C27H27N3O2
ONTOLOGY=
INCHIKEY=SISSIOUECFLRBO-UHFFFAOYSA-N
INCHI=InChI=1S/C27H27N3O2/c1-18-7-11-20(12-8-18)28-25(31)17-30-16-15-23-22-5-3-4-6-24(22)29-26(23)27(30)19-9-13-21(32-2)14-10-19/h3-14,27,29H,15-17H2,1-2H3,(H,28,31)
SMILES=COc1ccc(C2c3[nH]c4ccccc4c3CCN2CC(=O)Nc2ccc(C)cc2)cc1
IONMODE=positive
INSTRUMENTTYPE=LC-ESI-Orbitrap
INSTRUMENT=Orbitrap
COMMENT=DB#=CCMSLIB00010116806; origin=GNPS
NUM_PEAKS=72
COMPOUND_NAME="2-[1-(4-methoxyphenyl)(1,2,3,4-tetrahydrobeta-carbolin-2-yl)]-N-(4-methylpheny l)acetamide "
PRECURSOR_MZ=426.218
COLLISION_ENERGY=205060
PARENT_MASS=425.21072354800924
50.826439 0.0006405735949506198
54.508781 0.0006372080594254852
54.96048 0.0006975633298428991
76.723518 0.00073234053026929
91.054138 0.009054188038752123
92.06205 0.0010276101803410992
93.057129 0.0009560364581732367
93.070259 0.005591051983388614
103.053436 0.000893437497405733
108.080772 0.050243855485699505
115.054253 0.0033132575399775137
117.069679 0.004431512810462238
118.065132 0.001437981145372512
119.739388 0.000792022693581677
120.080788 1.0
121.064743 0.08886651680310921
130.064896 0.004483117688514302
133.065063 0.0027381997032495144
142.064926 0.006854249650489135
143.073105 0.003534709777531371
144.080734 0.10436839780091421
145.064789 0.015584000064618282
146.060349 0.0011023250689990874
148.075577 0.01188774458188045
154.065094 0.0015382741040215232
156.080856 0.0017563608060502456
159.091217 0.0032529022695600997
160.076126 0.0011884827784425333
164.009094 0.0007680152068357168
167.955185 0.0008878282715305087
169.076385 0.0012730699046409164
170.083618 0.0008261267869030409
171.09166 0.00453606878077642
176.070343 0.0009066752704712625
177.102173 0.29469997709192153
180.081589 0.000706313722208249
183.091171 0.0012973017604218857
192.080399 0.004108421400049317
193.087769 0.003166744560116654
194.073776 0.0014312500743222428
204.080414 0.010750417943419964
205.088425 0.003393581654510726
206.096191 0.009716525430098613
207.104279 0.011133191517145272
208.087524 0.0010888629268985491
217.088699 0.012307090308312223
218.07309 0.0020148339343805835
218.096085 0.03459748082934873
219.103806 0.017076727254532985
220.075836 0.014717935589483644
221.082092 0.0065430497989316895
230.096649 0.009781143712181197
231.103516 0.0051851683990573804
233.095291 0.0015856159704084167
234.090759 0.01877452774244589
235.071823 0.0008494611665439742
235.098969 0.05431368541172728
236.106781 0.07252011075753044
246.091049 0.0011225182821498951
247.098526 0.006566159809537613
248.107544 0.007216605642028628
250.122421 0.5044271376142796
259.874023 0.000808401633137332
260.106537 0.001803702672437139
262.122284 0.05717371750098666
264.137604 0.0017514246872800483
274.123016 0.0008301654295332024
277.132294 0.004926695270727043
283.143341 0.014486835483424401
291.148529 0.0210651112208525
314.929871 0.0008472174761938845
426.216644 0.057577357394967804
END IONS

BEGIN IONS
CHARGE=1+
PRECURSORTYPE=M+H
FORMULA=C15H14N4O3S
ONTOLOGY=
INCHIKEY=RDISCFKPWSUFQH-UHFFFAOYSA-N
INCHI=InChI=1S/C15H14N4O3S/c1-19-13-12(14(21)17-8-16-13)18-15(19)23-7-10-5-9(6-20)3-4-11(10)22-2/h3-6,8H,7H2,1-2H3,(H,16,17,21)
SMILES=COc1ccc(C=O)cc1CSc1nc2c(O)ncnc2n1C
IONMODE=positive
INSTRUMENTTYPE=LC-ESI-Orbitrap
INSTRUMENT=Orbitrap
COMMENT=DB#=CCMSLIB00010123531; origin=GNPS
NUM_PEAKS=34
COMPOUND_NAME=4-methoxy-3-[(9-methyl-6-oxohydropurin-8-ylthio)methyl]benzaldehyde
PRECURSOR_MZ=331.086
COLLISION_ENERGY=205060
PARENT_MASS=330.07872354800924
53.039051 0.012132692564150735
58.59655 0.0013034078420569508
61.35907 0.0013734939993594905
65.03904 0.03486883667686485
67.054482 0.01234197761720693
70.635406 0.0012931869441169972
77.039238 0.0013783610936166112
81.03331 0.0012391621978629563
82.394493 0.0015126928951131454
82.412857 0.00126106412202
84.959938 0.0013053546797597991
91.05439 0.7685579870476887
93.069992 0.17571719067425803
95.049156 0.008732053806700432
98.984032 0.011477581677142275
103.053726 0.00146694220909621
105.044983 0.0017687020530376995
106.041367 0.010018913528283171
107.048683 0.0019453775745711846
107.861679 0.001335043954728236
109.06485 0.018362573213265364
119.049187 0.26595847200496053
121.06485 0.05606113849122025
124.052063 0.010430182993009879
134.036194 0.018238462309708783
135.044144 0.001929316163522686
137.059692 0.061162339982108564
147.055283 0.03583690172460618
149.059723 1.0
152.046616 0.026722781018721765
243.660919 0.0014124307534164567
331.085388 0.14658811825481574
332.272217 0.0018266204746974371
344.652435 0.001638263926946862
END IONS

BEGIN IONS
CHARGE=1+
PRECURSORTYPE=M+H
FORMULA=C15H17NO2
ONTOLOGY=
INCHIKEY=UFDYDBRQKBXJOW-UHFFFAOYSA-N
INCHI=InChI=1S/C15H17NO2/c1-8-6-7-9(2)13-12(8)10-4-3-5-11(10)14(16-13)15(17)18/h3-4,6-7,10-11,14,16H,5H2,1-2H3,(H,17,18)
SMILES=Cc1ccc(C)c2c1NC(C(=O)O)C1CC=CC21
IONMODE=positive
INSTRUMENTTYPE=LC-ESI-Orbitrap
INSTRUMENT=Orbitrap
COMMENT=DB#=CCMSLIB00010123727; origin=GNPS
NUM_PEAKS=61
COMPOUND_NAME="6,9-dimethyl-3,4,5,3a,9b-pentahydrocyclopenta[1,2-c]quinoline-4-carboxylic aci d "
PRECURSOR_MZ=244.133
COLLISION_ENERGY=205060
PARENT_MASS=243.12572354800926
51.571789 0.0011184036654662795
53.039101 0.0023888494126033046
65.52195 0.0011201923958388765
67.054771 0.0019684977750430077
68.963348 0.0013008541634711745
71.049477 0.0011514951773593243
79.054642 0.005084913266700145
81.03392 0.014812476215475826
88.61998 0.0012726816601027716
88.885559 0.0011805620459140256
95.049469 0.001472125096647338
99.044243 0.006998854765378945
103.054329 0.002085659614448112
105.033813 0.002268557295046156
105.069962 0.04407342201560399
108.078934 0.0012476394348864134
115.05439 0.0021858285153135443
117.057404 0.07325924114008307
120.057121 0.0029214438810440642
121.08873 0.0067703444602796765
122.096588 0.005326839049593891
123.04438 0.0020458603636578283
123.071281 0.0013540688920559354
123.080307 0.012732629974738655
130.065323 0.004480769583355506
131.073105 0.0019488217409444407
132.080917 1.0
133.076767 0.0021008638226151866
138.067612 0.002773873625304811
144.080948 0.0055794972147232185
145.088867 0.0030779577886463024
146.096527 0.0069742597227557355
154.065247 0.0017373043743848444
156.080597 0.002382141673706066
156.093277 0.0013513857964970399
157.088593 0.0028950601080482584
158.096573 0.1847906045148449
159.10463 0.01322005900127134
160.076233 0.00571633508822689
168.080673 0.014857641657383902
169.08931 0.006515897564777753
170.096786 0.0084602474797907
171.118759 0.001855360578976247
172.111893 0.0016331108301810688
174.091858 0.012265324164897687
178.086349 0.4454274014711413
182.096313 0.00825096602619685
183.104385 0.04767860808157326
184.112488 0.02272850247940389
185.120209 0.020134843439138225
191.728699 0.00130353725903007
196.111679 0.009078253823522967
198.127869 0.42930557462292446
200.14389 0.0070856081884499
202.086227 0.014251709243666665
203.094147 0.0018289768059804412
211.099518 0.008421789776779865
213.943695 0.0014475300540241292
216.13826 0.010659491472898722
226.122467 0.011956768175624704
244.13324 0.4130245507715465
END IONS

BEGIN IONS
CHARGE=1+
PRECURSORTYPE=M+H
FORMULA=C37H50N2O10
ONTOLOGY=
INCHIKEY=XLTANAWLDBYGFU-UHFFFAOYSA-N
INCHI=InChI=1S/C37H50N2O10/c1-7-38-17-34(18-49-32(42)20-10-8-9-11-23(20)39-26(40)14-19(2)31(39)41)13-12-25(46-4)36-22-15-21-24(45-3)16-35(43,27(22)28(21)47-5)37(44,33(36)38)30(48-6)29(34)36/h8-11,19,21-22,24-25,27-30,33,43-44H,7,12-18H2,1-6H3/t19?,21-,22?,24+,25+,27?,28+,29?,30+,33+,34?,35-,36+,37+/m1/s1
SMILES=CCN1CC2(COC(=O)c3ccccc3N3C(=O)CC(C)C3=O)CCC(OC)C34C5CC6C(OC)CC(O)(C5C6OC)C(O)(C(OC)C23)C14
IONMODE=positive
INSTRUMENTTYPE=LC-ESI-Orbitrap
INSTRUMENT=Orbitrap
COMMENT=DB#=CCMSLIB00010115818; origin=GNPS
NUM_PEAKS=478
COMPOUND_NAME=Methyllycaconitine Perchlorate
PRECURSOR_MZ=683.354
COLLISION_ENERGY=205060
PARENT_MASS=682.3467235480093
53.039108 0.0011099651680581018
55.01825 0.004726253823548612
55.054691 0.0026241480970658738
56.049938 0.014469622221761385
57.07029 0.0007535573930208222
58.04187 0.0005220423705831358
58.06559 0.07353869311503529
59.049599 0.006294314672524602
65.038879 0.006716936277423811
66.736618 0.00039141508689781673
67.041969 0.0008502442543499252
67.054604 0.015910189774971
68.049843 0.004745857918190512
69.033829 0.013876364976764814
69.07016 0.0008506443379140456
70.065491 0.006285179431143852
71.049492 0.04212706560643633
72.044182 0.00047663288605546744
72.081131 0.0267685910663874
73.946297 0.00044562640983613445
75.044373 0.13666681180809298
79.054489 0.022565246461144186
79.059776 0.0005995252208344583
80.049713 0.050397793085715833
81.033684 0.004034509341184395
81.057503 0.0020965045565850523
81.070061 0.011436788763946496
82.065323 0.013649784318284612
83.049454 0.0018965961357128793
84.044533 0.001759234112031533
84.080971 0.0330835100424642
85.028542 0.016805976875036634
85.06498 0.007276386461252207
86.060204 0.0019460731364757719
86.096619 0.0007128822306685789
87.044243 0.01687699170766801
88.075996 0.0034253821148110468
89.059853 0.0005764537353035137
90.034233 0.0028952713923514825
91.054329 0.05518225906784397
92.049591 0.007779158140163542
93.033989 0.0015040474787167213
93.057457 0.011905620020501615
93.069977 0.014584246162881887
94.041397 0.0009403964174650612
94.065193 0.02685294201782279
95.049301 0.005508683913780125
95.073036 0.006566104773750411
95.085381 0.0009477979634012891
96.044601 0.003837934950013226
96.080887 0.012532617646072343
97.064819 0.0053351810081399
98.059853 0.007281320825209692
98.096443 0.014804492164930181
99.080383 0.0005035718460395761
100.075706 0.010778517939780356
101.059639 0.0031423229931958454
102.091217 0.002438642684502036
103.054047 0.00933688349706642
105.0336 0.0010536200661111419
105.061783 0.0007272852389769144
105.069817 0.027034313233557383
106.065086 0.005526687674165544
107.049019 0.01526225444287797
107.073067 0.0034577222029107814
107.085327 0.003451054143508774
108.044594 0.0038091956139905754
108.080704 0.3936180136824578
109.064743 0.02020255297323101
109.088631 0.005036985391682142
110.06012 0.00385073762406508
110.096367 0.02479797947131224
111.043793 0.001000275590895085
111.08046 0.0008001004476468318
112.075623 0.011120389345321259
112.111847 0.0005614506016489978
114.091362 0.011126323918189046
115.0541 0.017960017915742
115.075012 0.0005142407410827875
115.099373 0.0004718318832860223
116.062119 0.0024268402193604838
116.070938 0.000836908135545911
117.05616 0.0008447764456402794
117.069763 0.028471079992907853
118.065292 0.003976630585574974
119.049057 0.015851577532827357
119.075249 0.0007797628664707102
119.085449 0.008390685867921613
120.044327 0.03777995764048584
120.080856 0.005615839628370379
121.028229 0.0005571163630376932
121.064888 0.013246166682681122
121.088516 0.05006232301720086
122.096352 0.28225482029013127
123.080612 0.005722728620584552
123.10405 0.0153856135418151
124.075844 0.0036936381445537925
124.112 0.05378810120807233
125.059517 0.005392126235433041
126.091187 0.0017418304769922944
128.061859 0.014397407138437648
128.071655 0.0009067893980789454
129.069717 0.031959141866097766
130.065002 0.002560668171558766
130.07753 0.002742039387293359
130.087189 0.0008987877267965369
131.049149 0.007376674074658394
131.073486 0.0019081985590723716
131.085419 0.019807137050691988
132.044312 0.005207420989997444
132.056229 0.001656812719616704
132.080673 0.013089067203169836
133.064743 0.006140615903308337
133.088913 0.0006181291065660581
133.100967 0.0019764794873489244
134.059937 0.0008909194167021685
134.096359 0.01963290065851754
135.044006 0.0007951660836893466
135.080353 0.01013525024926873
135.104279 0.0038259991236836333
136.075684 0.012401857001198984
136.111816 0.008335807739043095
137.059555 0.018042835213514928
137.083359 0.0008621134000854979
137.095245 0.000717549872249984
138.079086 0.0010544869138334027
138.091248 0.027973242677954
139.075378 0.0026415517321051124
140.106705 0.002102039045888718
141.069748 0.019944632435561375
142.065094 0.007365538415457042
142.077774 0.006549501305839413
142.087067 0.00042768933004473533
143.048813 0.0006585375465422211
143.073929 0.0010540868302692822
143.085403 0.020394059639256654
144.056671 0.0026482864721011396
144.080704 0.003084644279368484
144.102524 0.0008878521093772453
145.064774 0.01389156815220139
145.088379 0.0022277319656165517
145.101227 0.007284321451940595
146.02359 0.12226773765480484
146.059952 0.045775761030620594
146.072586 0.0058486215820944465
146.096115 0.009889465579710748
147.044632 0.0005799211261925574
147.080521 0.01034135996538477
147.104019 0.003881077294344212
148.075424 0.0029482157840034187
148.089096 0.0006540699467428763
148.112 0.010859468180920722
149.059494 0.0019898156061529384
149.096252 0.002212862193150076
149.119232 0.0008422425830675167
150.091248 0.0058146144791442105
150.12912 0.0006646721611920677
151.075195 0.009633412098673676
151.099075 0.0006134614649846531
152.061371 0.0035150008331740223
152.106873 0.002147315169228346
153.069733 0.012054117703384314
154.077499 0.005927504724820191
154.122452 0.014825896635610625
155.048233 0.000635866144575397
155.062164 0.0006200628437926401
155.085373 0.024069560662236984
156.080612 0.0018641893670191248
156.092453 0.0011235013286441762
157.064926 0.009813316341339829
157.088226 0.0010994296342029305
157.101303 0.006958653430746569
158.059479 0.0006842095752399484
158.073151 0.005987450578844235
158.096237 0.010536800786457598
159.070175 0.0005328446268143873
159.080429 0.014817561561358116
159.103439 0.005331646936656836
160.075577 0.02813114232459353
160.111923 0.02865811905913415
161.059952 0.002025022959795536
161.082565 0.0008993211715486975
161.095795 0.004935430846989574
161.119431 0.0036044195097549377
162.091187 0.007615190559468188
162.126968 0.007396278169300294
163.074905 0.0020356251742447273
163.099182 0.0018773254440410786
164.106796 0.003737447294824979
165.054153 0.0008226384884256158
165.069794 0.018862873158773764
165.091446 0.0008801838410649371
166.076584 0.009520388491809657
166.122681 0.0008644472208762003
167.070404 0.0030519041077046293
167.085236 0.023422292136084155
168.058243 0.0005103732666296234
168.079834 0.0009565331212179184
168.094147 0.00309944737124094
169.06427 0.0042207482402824535
169.086166 0.0006081270174630475
169.101074 0.011817001511048942
170.059708 0.0405764750730936
170.094345 0.003151391553982575
171.080368 0.015322867102842214
171.103912 0.00245111195558379
171.117691 0.001701822120580252
172.075699 0.002361960001378955
172.089294 0.0008379083444562121
172.111893 0.012569825417535542
173.059555 0.0010469520067091346
173.096313 0.011223010779518148
173.119324 0.0036948383952461537
174.091217 0.010743243905543738
174.127731 0.013054259933091358
175.075134 0.0019403386053900458
175.098969 0.002208461273944751
175.112335 0.0017975754535930737
175.13533 0.00447086714845174
176.106766 0.003976497224386933
176.143112 0.0035887495701602207
177.090607 0.0011015634132115729
177.114594 0.0005141740604887674
178.077469 0.01482256260590962
178.12236 0.0022632060416352294
179.085419 0.02091650209340391
180.091492 0.006179624050810079
181.064728 0.004450862970245719
181.087402 0.0010778251217404276
181.101257 0.01670082157826698
182.07312 0.0025835396153076505
182.096176 0.002250403367583376
182.111313 0.0008045013668521565
183.080475 0.008977208372922157
183.117966 0.006141949515188739
184.0905 0.0013614843687018096
184.112015 0.008202179828626872
185.058594 0.0005251763585020792
185.095978 0.008419558565132304
185.119324 0.0031951340236597418
186.090805 0.0024878529628888485
186.127533 0.01118720330052937
187.074722 0.002076767100755111
187.093979 0.00047936679041029034
187.112045 0.002392499713440147
187.13562 0.0029749547022054675
188.07045 0.5164111944181408
188.142914 0.006046062820987877
189.070541 0.0016802842887117689
189.088745 0.0013774210306726066
190.077408 0.005630309317272734
190.122101 0.005431201063528802
190.158951 0.0007563579779696652
191.08551 0.0127543973017831
191.104767 0.0007912986092361825
192.093613 0.010213933350212414
192.137833 0.0007532239900507219
193.068146 0.0007821633678554327
193.082169 0.0009343951640032549
193.101257 0.022884846548282385
194.072708 0.002133779008642272
194.092758 0.0007200837348227466
194.111496 0.001866389826621787
195.08107 0.010377567527937668
195.100311 0.0007632927597477526
195.117584 0.011528607941912135
196.088348 0.002897471851954145
196.111893 0.005039585934848926
197.061737 0.0005853222543081831
197.098709 0.0062697762139252156
197.118301 0.002102305768264798
197.134293 0.0019568087121130035
198.091843 0.0026295492251814994
198.126755 0.010169790796971128
199.0755 0.002336087930899167
199.111435 0.0031583930163546826
199.135132 0.0021845896212855658
200.107086 0.007769689495812692
200.1427 0.0063874007817766205
201.090927 0.0025025226935732644
201.113297 0.0017292945253165211
201.151398 0.0021728538367380332
202.076782 0.005379523603163247
202.12265 0.015002000084417632
202.157516 0.0032588139909489095
203.085632 0.013735468881600404
203.1064 0.0011812467230655577
203.129333 0.004923294978877921
204.093292 0.01235157983330785
204.138062 0.00615181824310371
205.101288 0.015862513150246647
206.072739 0.0006357327833873568
206.109375 0.004951700911930472
206.153824 0.001038816974238686
207.08168 0.004816205944881687
207.117264 0.009265001816712784
208.088165 0.004341173393082702
208.112198 0.002944881754302415
209.09761 0.00834994402497535
209.134399 0.004434859627680901
210.088638 0.0016938204492978432
210.126648 0.006394402244148728
211.076111 0.0016082025665760723
211.114975 0.004204744897717637
211.134262 0.0008799171186888568
212.106323 0.003166261326449051
212.141663 0.005624974869751128
213.090775 0.0025157921317832586
213.130234 0.0006233301928996236
213.150223 0.000618995954288319
214.12175 0.005135605990237828
214.158127 0.0006050597101381242
215.085175 0.004037843370885399
215.106903 0.0017354958205603877
215.128387 0.0013122740903149972
216.065308 0.5508494540893107
217.101196 0.005754601944526146
218.07373 0.0012702653160823524
218.109558 0.004537147658907691
218.153122 0.000776695559145787
219.082703 0.003197401163856424
219.116837 0.012352780084000212
220.088211 0.0017233599524487347
220.110001 0.0010897609480700202
221.096741 0.006088004914626501
221.134018 0.006739074234638475
222.103394 0.0024531123734043915
222.127747 0.004258556137091834
223.111694 0.00929847547491086
223.133743 0.0009818050663515253
224.105103 0.001028681523947635
224.120392 0.0006671393431708103
224.14296 0.0069626542663877725
225.091614 0.00107089033996234
225.131027 0.0034299163952044116
225.151505 0.001019279560190805
226.121964 0.00644294571659534
226.159164 0.0022991468818120476
228.092651 0.0009098567054038687
228.137451 0.005437669081148749
229.100952 0.003062906405717941
229.145859 0.0017783047619212733
230.115036 0.0017886402539943843
230.154755 0.0030222979239597175
231.080017 0.0009589336226026409
231.11792 0.005496948129232592
232.088409 0.002600543166782769
232.110611 0.001398425417788929
232.134613 0.0008067685070488389
233.096085 0.004680044171892703
233.117264 0.0007702942221198601
233.131439 0.0028112538438861932
234.102509 0.0026201472614246694
234.127747 0.0024809181811107613
235.111313 0.005065458005328713
235.135223 0.0013820219916599913
236.119354 0.002210861775329474
236.141876 0.004617631135889916
237.090927 0.0008036345191298955
237.126724 0.0060027871154688505
237.152008 0.0014439682635046373
238.120819 0.004362044419010984
238.158859 0.004826674798142839
239.106659 0.0009705360459621333
239.141693 0.0008515111856363066
240.138016 0.003928353835504442
240.174088 0.0005480478022509634
241.100937 0.0005027716789113353
242.117111 0.001960209422408027
242.153427 0.0019093321291707129
244.133438 0.0008668477222609229
245.095703 0.0011109653769684029
246.104568 0.0013123407709090171
246.128586 0.0027325707429425093
247.111298 0.00560677106758365
247.136261 0.0022227976016590666
248.117416 0.0009735366726930365
248.142654 0.00450914180941926
249.091644 0.0004719652444740625
249.126358 0.004882286413555578
249.152573 0.0008677812505772039
250.09639 0.0008563788689997718
250.12413 0.0026468861796267182
250.158203 0.004719719125334645
251.1064 0.0019322035729195971
251.142853 0.004265290877087861
252.138016 0.005878961252373579
252.174164 0.002870199488999936
253.157272 0.0008671144446370032
254.117294 0.0007432219009477113
254.154083 0.004153867604480322
255.13678 0.001059487958384908
256.134491 0.0007425550950075105
256.167969 0.00077016086093182
258.148804 0.008891257087230287
259.111389 0.00198208065724661
260.141357 0.0007576915898500667
261.15094 0.0016818179423742305
262.126343 0.0005841886842098419
262.159637 0.0019992175699097684
263.139465 0.0008045013668521565
264.10968 0.0005699190370895468
264.138855 0.0032720167485648837
264.17099 0.0007788960187484492
265.121399 0.0017135579051277845
265.148895 0.0006301316134896709
266.121613 0.0005831217947055208
266.153503 0.0036296247742945245
266.186493 0.0013870230362114967
267.136566 0.0009810715798173044
268.136658 0.0007048805593861705
268.169708 0.002074700002340489
270.14859 0.0007491564738154976
270.183594 0.0007647597328161942
272.164612 0.0007751619054833253
275.130005 0.0008385751503964128
276.138916 0.002092770443319928
276.174927 0.006451680874411969
277.12207 0.0009464643515208876
278.154297 0.00389774744284923
279.138458 0.0026951629296972494
280.137939 0.0006566038093156391
280.168823 0.004918293934326416
282.148376 0.002942681294699753
282.185638 0.002392433032846127
284.164795 0.0027119664393903072
284.199158 0.0008282396583233018
290.17984 0.0006602045613927228
292.169281 0.002079501005109934
294.149292 0.0013298777671362958
294.184174 0.006934315013929243
295.193329 0.000771161069842121
296.164734 0.0022305992311594147
296.198792 0.0007156161350234019
298.179474 0.0019711450398273186
300.193481 0.000661271450897044
304.169525 0.0029788221766586316
306.147736 0.0007347534655071622
306.184387 0.0015513240198769516
308.163605 0.0021796552573280807
308.201294 0.004718585555236304
310.180054 0.002305881621808075
312.194397 0.007162496006665926
314.174591 0.0006503358334777524
316.192261 0.0007026800997835081
322.181305 0.0051727470811070075
326.17395 0.0016694820324805175
326.211823 0.008970406952332111
336.195374 0.005595035283036117
340.188904 0.0016281400641880734
340.229675 0.0033608352997996182
342.207367 0.001829782180504768
344.22226 0.0008198379034767728
353.148773 0.00946684397481154
354.205414 0.02349150659267699
358.194275 0.0010194796019728654
358.238159 0.0025798055020425266
368.219574 0.0034701914739925345
372.215576 0.002299213562406068
386.231598 0.009218658803868835
404.243347 0.001115833060331868
487.221771 0.000912057165006531
513.239136 0.0005668517297646235
527.251526 0.000658470865948201
541.26825 0.002825856893976589
559.278015 0.002178388326041699
569.262146 0.000956199718247818
573.295776 0.002337888306937709
575.268311 0.0005481811634390037
577.293335 0.0006347325744770558
587.273254 0.0017026889683025128
591.305847 0.0009713362130903742
601.292053 0.0020155543154446857
619.303833 0.0037911918536051564
633.314941 0.0006451347471441868
651.325867 0.005040586143759226
665.340942 0.003340831121593597
683.352417 1.0
END IONS

BEGIN IONS
CHARGE=1+
PRECURSORTYPE=M+H
FORMULA=C26H27N3O2
ONTOLOGY=
INCHIKEY=RUTWJFHUJLHOGI-UHFFFAOYSA-N
INCHI=InChI=1S/C26H27N3O2/c30-21(18-27-14-16-28(17-15-27)26(31)20-8-2-1-3-9-20)19-29-24-12-6-4-10-22(24)23-11-5-7-13-25(23)29/h1-13,21,30H,14-19H2
SMILES=O=C(c1ccccc1)N1CCN(CC(O)Cn2c3ccccc3c3ccccc32)CC1
IONMODE=positive
INSTRUMENTTYPE=LC-ESI-Orbitrap
INSTRUMENT=Orbitrap
COMMENT=DB#=CCMSLIB00010118006; origin=GNPS
NUM_PEAKS=66
COMPOUND_NAME=4-(3-carbazol-9-yl-2-hydroxypropyl)piperazinyl phenyl ketone
PRECURSOR_MZ=414.218
COLLISION_ENERGY=205060
PARENT_MASS=413.21072354800924
50.015598 0.0048899636745555605
51.02346 0.005937098752980692
53.00275 0.0004334253516973874
53.039089 0.010676873067038168
55.018341 0.0034552124279457735
56.04987 0.004483585740982114
58.065571 0.0009270407324593208
68.050179 0.0005981860325228061
68.997566 0.0007618038646951004
70.065559 0.0055237684901007405
76.031174 0.0003639972960200867
77.038742 0.0109244902752151
77.043327 0.0004899011226392794
81.033852 0.011468771946265542
81.039009 0.0006241858393813836
82.065437 0.006901758253605354
83.060623 0.00386444748315203
84.068466 0.012310384741903822
84.073807 0.0006083764330131643
85.076424 0.0008332319055153686
87.091927 0.003488069326723097
91.054466 0.0004498061823921689
91.581306 0.00040771125700209083
94.065697 0.000527615128192381
95.049316 0.038758664459444966
97.076233 0.004461300192246191
98.083847 0.0007691371435526479
99.091766 0.009778689263070236
100.075706 0.004304444214604882
105.033562 1.0
105.313492 0.0004535204405148228
118.064888 0.0008568507776799372
123.091911 0.0006585665363628727
125.107452 0.006436809326559288
129.069611 0.0005241865822330082
130.065399 0.0017156063031150816
146.060104 0.0019135095948811047
148.075653 0.03557173575282012
149.602737 0.0004535204405148228
152.062531 0.0022647450809413034
153.07016 0.0024718863993200813
167.073181 0.004481204806288106
168.081863 0.0005048533925176556
174.091385 0.06206820558856801
176.108704 0.0004352348620648342
180.08075 0.4195536452205403
182.096405 0.00042828253275832806
191.072845 0.016658161967939667
191.091461 0.0006273286731774755
194.096741 0.0006106621303194129
196.076553 0.0008436127807812475
203.117508 0.0073337550444863365
204.080917 0.008993742713149368
205.088516 0.00846098476601793
206.09639 0.10442341475939512
207.140518 0.0004889487487616758
215.439255 0.00048609162712886513
224.107071 0.003367213081655203
247.143875 0.009487072381748021
267.149445 0.002154841135465851
284.107361 0.0017432251455655853
292.18042 0.007771942265571741
308.175446 0.0008665649912314937
371.174988 0.015014936079522458
396.204285 0.003261023394302404
414.217194 0.7171573392121469
END IONS

BEGIN IONS
CHARGE=1+
PRECURSORTYPE=M+H
FORMULA=C16H16O4
ONTOLOGY=
INCHIKEY=UOBGWTOQZALQPG-UHFFFAOYSA-N
INCHI=InChI=1S/C16H16O4/c1-10-3-5-12(6-4-10)20-9-16(19)13-7-11(2)14(17)8-15(13)18/h3-8,17-18H,9H2,1-2H3
SMILES=Cc1ccc(OCC(=O)c2cc(C)c(O)cc2O)cc1
IONMODE=positive
INSTRUMENTTYPE=LC-ESI-Orbitrap
INSTRUMENT=Orbitrap
COMMENT=DB#=CCMSLIB00010119745; origin=GNPS
NUM_PEAKS=55
COMPOUND_NAME="1-(2,4-dihydroxy-5-methylphenyl)-2-(4-methylphenoxy)ethan-1-one "
PRECURSOR_MZ=273.112
COLLISION_ENERGY=205060
PARENT_MASS=272.10472354800925
53.03894 0.008958437514330574
55.018291 0.005692049343031902
63.896332 0.0012346676507903926
65.03894 0.03398851807126308
67.054588 0.016950366535134747
68.99752 0.008001537329370634
69.033859 0.015613501420501073
74.330032 0.001357828696960499
77.039146 0.001449981110938841
79.054413 0.04202979885879499
81.033836 0.0015290312859629162
81.070053 0.11432096554766268
86.36866 0.0010966574004721173
91.054283 0.14047390798297582
93.069931 0.10172185256923988
94.041321 0.013132810845159923
95.049156 0.01892487394554273
103.0541 0.0024828742818335274
105.069443 0.002103782834756746
107.048843 0.017359156390507866
109.06472 0.3414762292629772
114.67659 0.0013787922792873255
119.049103 0.024416022291275874
119.060226 0.016241972149007397
120.056938 0.008178417555253234
121.064651 0.2690824283689678
123.04393 0.006472069302109242
125.059723 0.016676092999692096
135.04335 0.0016980501684729558
137.059586 1.0
147.043747 0.07157971511365101
147.057007 0.0022955122647875144
148.051666 0.154173609033557
148.489929 0.0014491076283418898
149.059265 0.01765832417996362
150.031372 0.0025012174163695005
151.038757 0.3702867424995141
152.04245 0.002632239805912167
163.038193 0.00321747314586941
165.054443 0.4703087979350871
166.062408 0.04258926446214217
166.077667 0.00548983812183772
181.100342 0.0028475532660606154
182.269302 0.0012075896902849082
197.060242 0.004552154554010705
199.110916 0.0014102376527775655
206.080521 0.0020994154217719905
209.096359 0.005267100059615187
212.08284 0.01106222034908732
227.080734 0.0021867636814671015
227.106186 0.061709361768103474
238.447067 0.0014652670563854854
255.10112 0.08472868538685452
273.111511 0.09829212315231134
273.165405 0.00445825517483846
END IONS

BEGIN IONS
CHARGE=1+
PRECURSORTYPE=M+H
FORMULA=C17H14O4
ONTOLOGY=
INCHIKEY=KJRQQECDVUXBCO-UHFFFAOYSA-N
INCHI=InChI=1S/C17H14O4/c1-19-14-9-8-12-13(18)10-15(11-6-4-3-5-7-11)21-16(12)17(14)20-2/h3-10H,1-2H3
SMILES=COc1ccc2c(=O)cc(-c3ccccc3)oc2c1OC
IONMODE=positive
INSTRUMENTTYPE=LC-ESI-Orbitrap
INSTRUMENT=Orbitrap
COMMENT=DB#=CCMSLIB00010114766; origin=GNPS
NUM_PEAKS=98
COMPOUND_NAME="7,8-Dimethoxyflavone "
PRECURSOR_MZ=283.096
COLLISION_ENERGY=205060
PARENT_MASS=282.0887235480092
59.51712 0.0005037475229670967
65.039093 0.0005228125339737361
66.318352 0.0004347503402764018
68.99778 0.000869273716136058
81.033951 0.0009759469920065402
84.959862 0.0005979377559165651
91.054817 0.00196539836680945
92.026207 0.0009640313601273905
96.02079 0.0007313928329630409
102.046707 0.001845334190350971
103.054466 0.0027274313960331613
104.061996 0.006803258391952568
104.270378 0.00041829542006233806
105.033463 0.008483022040287546
108.020638 0.009668343706742001
109.02861 0.0026871452120607983
109.065002 0.0005510696038585767
111.044403 0.0005095351155941123
120.020813 0.002444747214976383
121.028107 0.0031546919105569548
122.036537 0.0005522044259423052
123.007309 0.005491177098745636
125.023407 0.0018735912602358114
127.039742 0.0005534527302344065
129.033524 0.007389847927031848
129.926895 0.0004847959941688302
131.048965 0.0032579607201762514
134.036209 0.0008148022561170883
136.015808 0.0020953354953963674
137.023315 0.006915151849408201
138.030807 0.0050693637302237395
141.070221 0.0009383843810351257
142.078018 0.0005485729952743739
147.044327 0.00053608995235336
149.023819 0.0008212707419943409
151.002533 0.023258519052641445
152.061661 0.000704951478412166
153.018387 0.0026172401717031207
153.06987 0.0009308945552825174
154.025833 0.005111579111738441
154.076569 0.00046731973407941076
155.08548 0.0008116247542826483
162.030548 0.003656510235981713
163.03894 0.012077003579455816
165.018311 0.0043603268923101506
165.069778 0.009659378612280545
166.026749 0.0007755374120200809
166.077606 0.006506615899265929
167.086105 0.0017338946617288288
169.01329 0.004870769865571245
169.064621 0.0008040214463216672
170.072525 0.002307774189470349
177.018585 0.000968343684045559
181.048859 0.0009643718067525092
181.064941 0.0017572719966536367
182.02153 0.0010299645231920185
183.080658 0.0027307223800759743
190.025986 0.0010484621231567936
191.034302 0.0035969320765859647
193.064484 0.0019315806687143396
193.906494 0.00045744678195097253
194.072357 0.021992738500450637
197.059753 0.01644856521039488
197.924301 0.0004256717636065735
200.949646 0.00047832750829157757
205.064514 0.0019472412134697934
209.060318 0.0022788362263352715
210.067474 0.026184771277743848
211.07515 0.006366919300758946
212.083252 0.0021997391270993927
215.103607 0.000451659189323957
221.059265 0.009645420300650685
222.067337 0.029807236851213705
222.404236 0.00037993843363231356
223.074997 0.008301563989099352
225.054504 0.01295127051276028
226.062927 0.000710398624414063
236.94754 0.0007245839004606697
237.054337 0.008455786310278062
238.061722 0.012928120142252218
239.069992 0.5728926864575099
240.075577 0.003183062462650168
249.054657 0.0021828302780518374
250.061508 0.00753828265558354
251.069794 0.04754575432418281
252.078308 0.0029365791060643304
253.049286 0.048501388000890606
254.056992 0.23305160240282688
255.064667 0.01473532431058991
255.094818 0.00071584577041596
256.061188 0.0006146196405473746
265.049103 0.016004509329031903
265.078522 0.0008264909235794921
266.056854 0.0006586507373960418
267.06485 0.5185915632333078
268.072571 0.23690977052308715
282.090149 0.0007013200477442347
283.096039 1.0
END IONS

BEGIN IONS
CHARGE=1+
PRECURSORTYPE=M+H
FORMULA=C17H14O4
ONTOLOGY=
INCHIKEY=KJRQQECDVUXBCO-UHFFFAOYSA-N
INCHI=InChI=1S/C17H14O4/c1-19-14-9-8-12-13(18)10-15(11-6-4-3-5-7-11)21-16(12)17(14)20-2/h3-10H,1-2H3
SMILES=COc1ccc2c(=O)cc(-c3ccccc3)oc2c1OC
IONMODE=positive
INSTRUMENTTYPE=LC-ESI-Orbitrap
INSTRUMENT=Orbitrap
COMMENT=DB#=CCMSLIB00010114767; origin=GNPS
NUM_PEAKS=59
COMPOUND_NAME="7,8-Dimethoxyflavone "
PRECURSOR_MZ=283.096
COLLISION_ENERGY=205060
PARENT_MASS=282.0887235480092
59.686138 0.0017070453469575154
66.750237 0.0016340900027591381
67.054626 0.002668081159254934
74.415192 0.0013406230166979971
81.070251 0.0014497817647842908
91.053963 0.001676875843717585
98.983963 0.021368784876631415
104.06205 0.003587428203438994
105.033272 0.007882468391959992
106.925583 0.0012594396261614573
108.020561 0.007270850280823221
109.028343 0.001569911241321468
109.100998 0.007849007670184796
118.66851 0.0014344227449530535
120.020653 0.0018765431015236697
123.007477 0.003667514521130446
125.022911 0.0015572949036029519
131.049896 0.002049332074625089
136.014694 0.0018584413995797113
137.022934 0.0030356005623595403
137.095413 0.0069960335331285825
151.002274 0.020685308494141356
154.025925 0.006532520256078743
155.046082 0.0017158219297182223
162.030655 0.002101991571189331
163.039017 0.012888960320520802
165.018005 0.0022287034847970387
165.069778 0.00895211441592116
166.077545 0.007076668387242579
190.027786 0.001714724856873134
191.033737 0.0024574431729979655
194.072159 0.01915214919313035
197.059296 0.012409539487217182
205.068756 0.0014607524932351745
209.05983 0.001726792658169106
210.067062 0.02126840271130583
211.074463 0.005525955920710157
212.084671 0.0017712241083951855
212.628937 0.0016351870756042266
220.684433 0.0015079266255739747
221.05957 0.0084622713905892
222.06723 0.027505261835633257
223.074448 0.0075039782604045015
225.054565 0.01328664922686534
237.053772 0.007405790240769092
237.183044 0.0016582256053510826
238.061646 0.011860454528250448
239.069794 0.5255329991283756
247.168228 0.0027865650265244788
250.06189 0.009061273164007453
251.069855 0.04279900583258778
253.049026 0.043362352738540666
254.056854 0.22682694169551512
255.065323 0.013246606068019614
265.048035 0.011814377468756737
265.179565 0.00639977444182305
267.064636 0.4878447071446321
268.072388 0.23132494036037746
283.095917 1.0
END IONS

BEGIN IONS
CHARGE=1+
PRECURSORTYPE=M+H
FORMULA=C22H18ClNO4
ONTOLOGY=
INCHIKEY=AEYDCLVYMODTOM-UHFFFAOYSA-N
INCHI=InChI=1S/C22H18ClNO4/c23-16-2-6-18(7-3-16)28-19-8-4-17(5-9-19)24-12-11-20(25)15-1-10-21-22(13-15)27-14-26-21/h1-10,13,24H,11-12,14H2
SMILES=O=C(CCNc1ccc(Oc2ccc(Cl)cc2)cc1)c1ccc2c(c1)OCO2
IONMODE=positive
INSTRUMENTTYPE=LC-ESI-Orbitrap
INSTRUMENT=Orbitrap
COMMENT=DB#=CCMSLIB00010115870; origin=GNPS
NUM_PEAKS=49
COMPOUND_NAME="1-(2H-benzo[d]1,3-dioxolen-5-yl)-3-{[4-(4-chlorophenoxy)phenyl]amino}propan-1- one "
PRECURSOR_MZ=396.1
COLLISION_ENERGY=205060
PARENT_MASS=395.09272354800925
53.03907 0.0017883390494855462
55.018372 0.0004201556533278839
60.53677 0.0003764535563658567
65.038986 0.008506767054281697
78.046547 0.0020499361087652863
92.049568 0.00487407640850012
92.378067 0.00054843054074882
93.033707 0.00336604630206397
95.049263 0.0009571374757176376
98.999481 0.006572056756097982
100.005417 0.00038063910931433254
104.041161 0.0006439596315728569
104.049347 0.03973690106583875
105.057243 0.08396526975888753
111.044113 0.005661575885306001
112.007683 0.0005371049268882383
120.044449 0.0015836162685056838
121.051826 0.0008640704748632924
125.014923 0.0008792123281768962
126.994377 0.015401726909904741
134.061462 0.0004622573918096115
137.046997 0.0261742322587952
141.069824 0.004677970942414178
149.023453 0.006882526301276101
152.061569 0.004676247479435394
164.045959 0.0005004197863398324
164.642166 0.00036365068852346
165.054489 0.01082383992475853
168.020554 0.0005454760327851901
168.056793 0.005999497733646183
168.080811 0.0006865537880485228
169.064438 0.0033735556764715297
169.089279 0.0005616027220866705
170.072052 0.006995536230884949
172.73259 0.0003886409017158305
175.031738 0.002898618521318006
176.038177 0.0024671372541295402
176.517776 0.00041597010037940806
196.075394 0.004212389729145482
197.08223 0.0030400655900767928
204.033371 0.014738193663072836
204.054749 0.0005907784882275168
230.036804 0.0007937778062285952
231.043686 0.0008031337481134236
232.052002 1.0
233.055618 0.003151105847709887
266.683716 0.0005888088162517635
273.079468 0.0006478989755243636
396.09491 0.003923217262205196
END IONS

BEGIN IONS
CHARGE=1+
PRECURSORTYPE=M+H
FORMULA=C19H17Cl2NO6
ONTOLOGY=
INCHIKEY=NYIHORJUBZLXER-UHFFFAOYSA-N
INCHI=InChI=1S/C19H17Cl2NO6/c1-8(2)26-19(25)14-13(10-4-3-5-11(20)15(10)21)17-16(28-18(14)22)12(24)6-9(7-23)27-17/h3-6,8,13,23H,7,22H2,1-2H3
SMILES=CC(C)OC(=O)C1=C(N)Oc2c(oc(CO)cc2=O)C1c1cccc(Cl)c1Cl
IONMODE=positive
INSTRUMENTTYPE=LC-ESI-Orbitrap
INSTRUMENT=Orbitrap
COMMENT=DB#=CCMSLIB00010123890; origin=GNPS
NUM_PEAKS=89
COMPOUND_NAME="methylethyl 2-amino-4-(2,3-dichlorophenyl)-6-(hydroxymethyl)-8-oxo-4H-pyrano[3 ,2-b]pyran-3-carboxylate "
PRECURSOR_MZ=426.051
COLLISION_ENERGY=205060
PARENT_MASS=425.0437235480092
52.055691 0.0019250685441072524
55.018162 0.004174391057863424
67.018311 0.01851732599569833
68.025688 0.004410005507771868
83.012939 0.002306142718718015
88.50737 0.002130378884702713
95.013046 0.0039486254434817
104.272263 0.00308647353352733
114.783508 0.0022909906640615233
115.053673 0.0027841900431303237
124.014938 0.010520071548002089
125.014526 0.003947110238016051
125.023972 0.003556944830611393
128.062744 0.002919800932305923
144.055969 0.003556944830611393
158.976807 0.002846313467221939
162.022781 0.0031122320264433657
163.030869 0.003956201470809945
165.009567 0.011714053454933622
166.989288 0.004672893656061996
170.975815 0.0026137294282447938
172.955109 0.014765677262751022
178.987381 0.002512968264779125
179.027039 0.002508422648382177
182.97644 0.020809831865225503
184.051193 0.014497485895331121
191.025284 0.02000980337936275
193.005157 0.02192123507427916
193.023102 0.0034152731195731968
197.986664 0.003707707774443484
198.971924 0.003403909078580828
201.032608 0.00308647353352733
205.004456 0.008560153278184905
207.020264 0.0604316971892181
207.970734 0.0031273840810998573
208.992111 0.00434257886455048
213.982956 0.002917528124107449
217.513184 0.002415995114977579
218.014374 0.01728394874665992
219.020767 0.03123217266069322
220.023529 0.0033417856544892127
223.965286 0.0030190468903059427
224.986588 0.002866011138275378
230.056793 0.01215043262904058
235.015213 0.10243319269701269
235.977905 0.002540999565893634
237.982788 0.003138748122092226
238.033234 0.003450880448015952
240.980499 0.004691076121649786
247.014832 0.045725112939627395
253.988815 0.014140655008170746
254.997086 0.0028023725087181137
256.014709 0.017400619567514902
257.022522 0.003151627368550244
262.005035 0.002677368057802058
263.01001 1.0
264.017944 0.24848233232546915
265.025726 0.14193459918648618
271.973633 0.008864709576780386
274.025055 0.004076660305329053
284.011566 0.019956013585332204
285.019714 0.005523681525023997
286.025421 0.009135931355131584
289.983978 0.038022565954999914
291.991394 0.004103176400977913
294.989807 0.021736380007469962
298.986176 0.021693196651698964
299.99472 0.032623888880891974
302.020386 0.06671222384433385
310.987488 0.004346366878214603
312.005249 0.002816009357908956
319.987122 0.009169265875375865
322.002899 0.008913196151681159
322.98822 0.003082685519863207
330.015594 0.10361126494655491
335.982086 0.024291774025287264
337.99704 0.00235993251274856
338.981506 0.024565268611836936
340.013275 0.07380262782083907
347.9823 0.0037493759247488358
348.025421 0.00288949682299294
364.984985 0.011643596400780937
365.992157 0.42289687587361063
366.976593 0.005291097486046852
381.024475 0.004346366878214603
382.994995 0.06045442527120284
383.946045 0.003923624553298488
384.002686 0.14054667097995155
426.049561 0.38371290492919063
END IONS

BEGIN IONS
CHARGE=1+
PRECURSORTYPE=M+H
FORMULA=C18H18N2O6
ONTOLOGY=
INCHIKEY=QZSPYIDISPEVBP-UHFFFAOYSA-N
INCHI=InChI=1S/C18H18N2O6/c1-9(2)24-18(23)14-13(10-4-3-5-20-7-10)16-15(26-17(14)19)12(22)6-11(8-21)25-16/h3-7,9,13,21H,8,19H2,1-2H3
SMILES=CC(C)OC(=O)C1=C(N)Oc2c(oc(CO)cc2=O)C1c1cccnc1
IONMODE=positive
INSTRUMENTTYPE=LC-ESI-Orbitrap
INSTRUMENT=Orbitrap
COMMENT=DB#=CCMSLIB00010118181; origin=GNPS
NUM_PEAKS=131
COMPOUND_NAME="methylethyl 2-amino-6-(hydroxymethyl)-8-oxo-4-(3-pyridyl)-4H-pyrano[3,2-b]pyra n-3-carboxylate "
PRECURSOR_MZ=359.124
COLLISION_ENERGY=205060
PARENT_MASS=358.11672354800925
50.07288 0.0013236011116668919
50.997971 0.0012923878317201204
55.018211 0.0024824435177919647
67.01815 0.04406208835017665
69.033592 0.0013891885100360572
78.034027 0.001979475095358546
80.049637 0.029148067107761674
83.012772 0.0015013982759206534
85.028542 0.0019225800027973421
92.04969 0.011848798130680125
93.057251 0.009725504884680759
96.044144 0.005656715556935788
96.25618 0.0012520871411559344
97.028412 0.012178710646573216
101.023239 0.007609323525251543
104.049316 0.03809205467934479
106.028717 0.018819632283855938
108.044518 0.004865320623601823
111.031578 0.005590337948947717
116.049637 0.0016985555758376025
118.647041 0.0013876080907982461
120.044159 0.06853725087654002
120.053947 0.002250516994643169
122.023331 0.0015855556003341006
124.015518 0.0016507478938938133
125.022842 0.005629848429892998
128.049988 0.0015199682019649352
129.044907 0.005246596764723778
130.065186 0.01165361635481044
131.060104 0.0030411217183582287
132.044189 0.06443566784961047
134.05986 0.0030502091289756434
141.044403 0.005470621191683518
142.052948 0.0013745696320863036
142.065201 0.005587967320091001
143.060074 0.008474998162762636
144.043869 0.004843589859081919
144.080185 0.001645216426561474
145.075684 0.003175457353572182
146.059799 0.002192041482844154
147.054291 0.0018795135785669864
148.039154 0.008649634488540775
148.075592 0.003074705627161717
149.046982 0.00177994716658488
154.065125 0.007202365571515156
155.05983 0.005431900920357143
156.044113 0.001429884305409696
157.039413 0.033289555720445965
158.023407 0.002863324554104467
158.046722 0.005469435877255159
158.059998 0.013701839687013774
159.055054 0.0407499247325338
159.069016 0.0021327757614262336
160.039124 0.0023943351452839893
168.067856 0.0050806527447536005
169.039276 0.032707566336121985
169.0755 0.024426564634800675
170.023163 0.007530697668170436
170.045685 0.0020632373149625403
170.05983 0.027116833282364812
171.054932 0.03159179035422727
174.018509 0.0018107653417221987
174.05365 0.002379716267334236
175.049866 0.009785955920527039
175.063736 0.0015705416175748942
176.033936 0.002169520508705344
176.070969 0.00886852255297763
179.059692 0.014031752202906865
181.039078 0.004869271671696351
181.075455 0.006817928591917578
182.060333 0.0028957231484795973
183.055328 0.010719588585264013
185.034164 0.12514075608836756
185.071045 0.006107135039711984
186.055038 0.03241005241460402
187.04982 0.07085888673688469
195.055206 0.0030300587836935506
196.062332 0.002284100903446657
197.034866 0.03767482400056263
197.070465 0.10796673533588255
198.055252 0.01484961915847417
199.049667 0.024888442157051
200.057205 0.0017384611615923356
202.050156 0.005632614163559167
203.057419 0.011789927514071657
204.06514 0.14679131433195283
207.054443 0.012743710524090726
208.040329 0.0023461323585307475
208.062546 0.001725422702880393
209.070099 0.003100782544585602
211.049301 0.010561941766292344
212.057098 0.005141893990218785
213.029785 0.002445303665703401
213.065445 0.04832645455860076
214.050064 0.0022220694483625673
215.044373 0.009937676167356914
215.081253 0.0016100520985201745
216.065704 0.005570187603665624
220.023453 0.02426536187254393
223.050583 0.002192041482844154
224.057343 0.005089345050561562
225.040451 0.002668932987853688
225.06517 0.07915924857386919
226.049805 0.011433542975945229
226.07164 0.001590691962856987
228.064499 0.0016519332083221715
232.059906 0.733648389908391
233.067932 0.007855078716731188
235.049927 0.008359627558402418
237.066223 0.0017708597559674656
238.033066 0.015287395287347875
239.041977 0.001747943677019203
241.059937 0.006770120909973789
243.039368 0.0022272058108854537
243.075851 0.013616497048171968
244.059631 0.0074975088641764
252.053284 0.008018652107844648
253.059998 0.17401877696096443
254.044266 0.01963552371537598
256.059875 0.008356861824736248
270.06485 0.0017392513712112413
271.070496 0.030687000340580344
272.054169 0.004599810191649539
273.087646 0.001564615045433102
281.055115 0.06749338396996571
282.036407 0.0021916463780347014
298.058838 0.003056925910736341
299.065399 0.5558950822884786
300.048004 0.0015926674869042512
317.075867 0.21963560273633786
359.122681 1.0
END IONS

BEGIN IONS
CHARGE=1+
PRECURSORTYPE=M+H
FORMULA=C8H8O4
ONTOLOGY=
INCHIKEY=MRIXVKKOHPQOFK-UHFFFAOYSA-N
INCHI=InChI=1S/C8H8O4/c1-12-5-2-3-6(8(10)11)7(9)4-5/h2-4,9H,1H3,(H,10,11)
SMILES=COc1ccc(C(=O)O)c(O)c1
IONMODE=positive
INSTRUMENTTYPE=LC-ESI-Orbitrap
INSTRUMENT=Orbitrap
COMMENT=DB#=CCMSLIB00010118658; origin=GNPS
NUM_PEAKS=39
COMPOUND_NAME=4-Methoxysalicylic acid
PRECURSOR_MZ=169.05
COLLISION_ENERGY=205060
PARENT_MASS=168.04272354800926
56.965099 0.001107940526507756
58.222919 0.00045227316612671373
60.013191 0.0005488210431461735
65.039093 0.004803149606299213
65.562958 0.0007127378832414341
67.054543 0.0030333197451136045
68.052307 0.0005329442811474179
68.997551 0.0006415070050848549
71.367844 0.0005331588319852389
72.937759 0.0006790534017035336
73.611214 0.0005114891973653157
73.948891 0.0008654980797700015
81.070213 0.0007936235490999592
83.049828 0.0008221588105301552
84.960007 0.001989315368276513
86.956001 0.008046729172477418
86.964233 0.005411830333197451
95.049263 0.04990881589392607
104.272568 0.0005792872621167586
104.27993 0.0010528009611877535
104.965881 0.0007442768564011243
108.020126 0.005674655109528202
109.064484 0.0007054431547555193
110.035988 0.002950932223390332
111.043716 0.0008208715055032289
113.963707 0.002239267094338003
121.970459 0.0006612456821643889
123.044098 0.009312793666459268
125.059883 0.004033126649359566
131.973709 0.0009373726104400438
136.015686 0.001216932352120835
138.874115 0.0006067497693578493
141.054672 0.000662962088866957
151.039032 1.0
159.005157 0.0005589049325237615
169.049591 0.1430575639897874
198.746262 0.000544315475551932
232.903488 0.0005089145873114634
238.132187 0.0007206762642408119
END IONS

BEGIN IONS
CHARGE=1+
PRECURSORTYPE=M+H
FORMULA=C21H21NO3
ONTOLOGY=
INCHIKEY=WRKNCGBLJWHTCH-UHFFFAOYSA-N
INCHI=InChI=1S/C21H21NO3/c23-19-10-9-16-20(24)18(15-7-3-1-4-8-15)14-25-21(16)17(19)13-22-11-5-2-6-12-22/h1,3-4,7-10,14,23H,2,5-6,11-13H2
SMILES=O=c1c(-c2ccccc2)coc2c(CN3CCCCC3)c(O)ccc12
IONMODE=positive
INSTRUMENTTYPE=LC-ESI-Orbitrap
INSTRUMENT=Orbitrap
COMMENT=DB#=CCMSLIB00010114798; origin=GNPS
NUM_PEAKS=54
COMPOUND_NAME=7-hydroxy-3-phenyl-8-(piperidylmethyl)chromen-4-one
PRECURSOR_MZ=336.159
COLLISION_ENERGY=205060
PARENT_MASS=335.1517235480092
55.018349 0.0003027464567940713
56.05003 0.0013408305383983063
65.038986 0.004672119336208185
69.070236 0.028577745861324447
69.449966 0.0002433611603563592
70.222511 0.000251471402746446
70.943153 0.0002723263117495264
72.241409 0.00026763799887286494
77.039581 0.0002906215096992571
82.554207 0.00023368814700738523
84.081017 0.021764899754709625
85.888687 0.0010431496150571796
86.096611 1.0
86.305267 0.000536542381108966
93.033783 0.002421648322430042
93.831284 0.0002575608206207305
95.012932 0.0006042534745517838
103.054176 0.0005042630775098829
105.033401 0.019700694872634705
111.043877 0.0005957660115854139
121.02829 0.005284698607765074
131.01268 0.005820486547721475
149.023254 0.2194395019567509
152.061829 0.009171094427902425
153.070343 0.0014297198727667329
156.319748 0.00027167964790446964
165.069519 0.007076092180206676
166.077026 0.0030947176078266157
167.033783 0.2342993251739445
167.085251 0.023966924868762268
169.03775 0.0003842799899249773
169.064804 0.001090436908726955
176.062286 0.0003713197686969648
177.069366 0.004467423284920845
178.021088 0.000298516197474325
178.077728 0.0012549589686401447
181.064423 0.0029115231293874123
194.072739 0.0019877099380700815
195.080246 0.036355225814475804
205.063873 0.0022687392674009964
209.344162 0.00041157459305174785
222.066513 0.001076695302019499
223.075073 0.1369702462420478
249.052017 0.00033381326568367295
250.035187 0.0004572182827820039
250.062302 0.005544441918862872
251.069824 0.7923490182726725
252.110565 0.0006150312053027297
253.084961 0.0018818726220957923
334.554626 0.00029940536026127804
335.151306 0.00039419550221584754
336.158661 0.6645518064500623
337.773407 0.00039088135000993167
352.943146 0.00042154399399637287
END IONS

BEGIN IONS
CHARGE=1+
PRECURSORTYPE=M+H
FORMULA=C21H21NO3
ONTOLOGY=
INCHIKEY=WRKNCGBLJWHTCH-UHFFFAOYSA-N
INCHI=InChI=1S/C21H21NO3/c23-19-10-9-16-20(24)18(15-7-3-1-4-8-15)14-25-21(16)17(19)13-22-11-5-2-6-12-22/h1,3-4,7-10,14,23H,2,5-6,11-13H2
SMILES=O=c1c(-c2ccccc2)coc2c(CN3CCCCC3)c(O)ccc12
IONMODE=positive
INSTRUMENTTYPE=LC-ESI-Orbitrap
INSTRUMENT=Orbitrap
COMMENT=DB#=CCMSLIB00010114799; origin=GNPS
NUM_PEAKS=41
COMPOUND_NAME=7-hydroxy-3-phenyl-8-(piperidylmethyl)chromen-4-one
PRECURSOR_MZ=336.159
COLLISION_ENERGY=205060
PARENT_MASS=335.1517235480092
56.050011 0.0011760209085285404
65.03891 0.003886960054405985
67.054703 0.0006772807513122314
69.070267 0.030839325200376192
72.241707 0.0005620256729639248
84.081039 0.02111864204091737
84.086838 0.0006774204544375021
85.889763 0.0006606560794050211
86.096657 1.0
86.304604 0.0007623599546020724
92.371536 0.0006638692512862467
93.033607 0.0031046225528902063
105.033401 0.020221747976679638
121.028343 0.005783429979955396
131.012604 0.005615506823380045
138.645905 0.0006440314074978109
146.036102 0.0006450093293747056
149.023315 0.2800951266520593
152.06189 0.010214254301040117
153.070389 0.0012147186742285175
165.06987 0.007371994217408239
166.077499 0.0038442108980731586
167.033829 0.22495206785771962
167.085297 0.026571115317106535
169.067001 0.0005284969228989628
177.069611 0.0037223897728371302
178.077667 0.0007624996577273431
181.065109 0.003520099647445193
194.072144 0.002643043426995897
195.080246 0.03613477216376112
205.063232 0.0020954071759348514
209.081085 0.0006262891105884351
220.185211 0.0005899662980180597
223.075165 0.14739797341058358
250.063019 0.005554316854511489
251.069992 0.8958756284545091
252.10675 0.0005620256729639248
253.085785 0.0025323985517815223
308.16925 0.0005955544230288866
317.457703 0.0006047748292967513
336.158966 0.7498280254527918
END IONS

BEGIN IONS
CHARGE=1+
PRECURSORTYPE=M+H
FORMULA=C15H10O6
ONTOLOGY=
INCHIKEY=IYRMWMYZSQPJKC-UHFFFAOYSA-N
INCHI=InChI=1S/C15H10O6/c16-8-3-1-7(2-4-8)15-14(20)13(19)12-10(18)5-9(17)6-11(12)21-15/h1-6,16-18,20H
SMILES=O=c1c(O)c(-c2ccc(O)cc2)oc2cc(O)cc(O)c12
IONMODE=positive
INSTRUMENTTYPE=LC-ESI-Orbitrap
INSTRUMENT=Orbitrap
COMMENT=DB#=CCMSLIB00010117367; origin=GNPS
NUM_PEAKS=110
COMPOUND_NAME=kaempferol
PRECURSOR_MZ=287.055
COLLISION_ENERGY=205060
PARENT_MASS=286.04772354800923
51.023441 0.00040978006870922673
53.039108 0.0015538420361589091
55.018459 0.0019027926342061895
61.286621 0.0003985500125870212
65.038963 0.004180856310496079
67.018227 0.004465585025094496
68.997467 0.02813421507990653
69.033821 0.002863781290913668
71.013252 0.001616075263836131
77.039192 0.00037679177885024815
79.054466 0.007610351678565847
81.03373 0.004635088684689035
83.012848 0.0004970469631588651
84.959846 0.0008049376685093317
91.054337 0.0009717507938245922
93.033707 0.0006428037332449902
94.041367 0.0004978658214177758
95.013092 0.0005430200054091437
95.049271 0.004247885707975492
97.028183 0.001469499635491095
103.053993 0.002916773118240325
105.033501 0.013563451220847476
107.049072 0.016727051614273774
109.028427 0.01167808856958096
111.007622 0.023994535641858536
111.043732 0.0031646532111877564
115.054337 0.00245552195897099
117.069763 0.003086978656342502
119.049187 0.0024547031007120792
121.028397 0.10126434054770855
125.02256 0.0004564549894671432
127.039001 0.0045664215706918
128.061935 0.001749666139789867
129.01799 0.0005600990490949978
129.069855 0.005431369851604167
131.049194 0.0005093298370425273
133.028427 0.01499633619419013
133.064499 0.0009282343263510459
134.036209 0.0007973339846765884
135.044174 0.006768799347908075
135.079773 0.0005555368387953519
137.023285 0.034765914159322675
139.054367 0.0009261286908281325
141.070099 0.0046935785603255216
143.049179 0.00048417919051883796
145.028625 0.0004641756530511595
145.064651 0.009427866074094038
147.043976 0.02232944586223903
147.080307 0.0005032468899763327
149.022873 0.0007167349360495096
151.039169 0.0018847777525101514
153.018173 0.16318289269400624
155.048096 0.0005520274462571627
157.064758 0.020691495384914854
161.023041 0.0015192160297821087
161.059921 0.006602571121349179
163.039734 0.0016459051004107392
165.018158 0.05982625231502928
166.025452 0.0007997905594533209
167.048981 0.000643739571255174
169.064743 0.0029814629206942793
171.02887 0.0025211475994351283
171.044083 0.010580701522889193
173.059326 0.0023723493558159055
175.038635 0.004061069045192553
175.075546 0.002317134913215062
177.055344 0.0005583443528259033
179.034698 0.0006561394248901092
183.028656 0.028523406712391713
184.051559 0.0005891100274106954
185.059601 0.021861292897644588
188.048035 0.00042568931488235113
189.054016 0.005193666997017485
191.032913 0.0004468626498627594
193.012482 0.00046593034932025407
194.021057 0.0019146075890847597
195.043533 0.0006714637723068688
197.059311 0.004440902297575899
199.038696 0.002123182485604472
201.054108 0.002538460602623528
202.061798 0.0007497232259084882
203.034546 0.0033593075173059843
203.069382 0.004643862166034508
212.04657 0.0008270468414999237
213.054474 0.05358924291640814
216.041977 0.0023197084677430676
217.049408 0.002695564408583132
218.056793 0.000510850573809076
219.065857 0.0006495885588188227
223.037537 0.0004160969752779673
229.049515 0.005852379976435599
230.056519 0.0006629242504639416
231.06485 0.02260434827773052
241.049118 0.027161177508817934
242.057663 0.0009156005132135648
243.06427 0.00322302610707297
245.044495 0.0023907151767657625
257.043701 0.0009370078076965189
258.051849 0.04180914800371715
259.059387 0.015519469641882869
263.054993 0.000914547695452108
263.90448 0.00073720639252228
269.043854 0.00609710161609866
270.05249 0.0004910809958439434
285.039429 0.0004621869972795189
285.803467 0.0014885673349485898
286.046539 0.0024306052719498465
287.054565 1.0
288.315948 0.0012447815332957126
288.348389 0.00044323627757329715
END IONS

BEGIN IONS
CHARGE=1+
PRECURSORTYPE=M+H
FORMULA=C15H10O6
ONTOLOGY=
INCHIKEY=IYRMWMYZSQPJKC-UHFFFAOYSA-N
INCHI=InChI=1S/C15H10O6/c16-8-3-1-7(2-4-8)15-14(20)13(19)12-10(18)5-9(17)6-11(12)21-15/h1-6,16-18,20H
SMILES=O=c1c(O)c(-c2ccc(O)cc2)oc2cc(O)cc(O)c12
IONMODE=positive
INSTRUMENTTYPE=LC-ESI-Orbitrap
INSTRUMENT=Orbitrap
COMMENT=DB#=CCMSLIB00010117370; origin=GNPS
NUM_PEAKS=43
COMPOUND_NAME=kaempferol
PRECURSOR_MZ=287.055
COLLISION_ENERGY=205060
PARENT_MASS=286.04772354800923
56.69466 0.004682636449700271
60.560219 0.0038667638203190445
65.039124 0.0059037197613799695
68.997459 0.02597527669711501
70.335007 0.004339206768290356
72.937424 0.003988508733834728
79.054543 0.004566342800968871
105.03363 0.008218690206439398
107.049156 0.007484586548822436
109.02887 0.006441577886762694
111.007347 0.016699041122524443
117.341118 0.004139327059533263
121.028389 0.08644979112570435
128.955795 0.0037486530833262164
132.301376 0.003933996085991885
133.028275 0.006519712682004103
135.044601 0.0040975340295204155
137.023285 0.03015639678666112
144.086578 0.004297413738277509
145.065186 0.004824369334091665
147.043716 0.019502808309908037
152.277557 0.00415204667736326
153.018219 0.16400493521171805
157.064346 0.019642724106038
161.059937 0.004460951681806041
162.509827 0.0040284846755861475
163.936829 0.0039667036746975914
165.01828 0.06121770352751344
165.287888 0.003943081527299026
171.044113 0.009074538777572043
183.028732 0.02773421813417743
185.060257 0.00887465906881495
208.456497 0.00389038596771761
213.054962 0.046593777199539915
215.28688 0.004835271863660234
231.065338 0.021209054187389043
241.048615 0.023678477134669862
258.051575 0.032943810179691856
259.059418 0.006061806440124216
261.41687 0.004629940890118856
263.904999 0.03500620535641278
269.043396 0.004909772482378787
287.054626 1.0
END IONS

BEGIN IONS
CHARGE=1+
PRECURSORTYPE=M+H
FORMULA=C19H21NO5
ONTOLOGY=
INCHIKEY=UOGFWBMGLSZZBQ-UHFFFAOYSA-N
INCHI=InChI=1S/C19H21NO5/c1-12(8-13-4-6-15(22-2)17(9-13)23-3)20-19(21)14-5-7-16-18(10-14)25-11-24-16/h4-7,9-10,12H,8,11H2,1-3H3,(H,20,21)
SMILES=COc1ccc(CC(C)N=C(O)c2ccc3c(c2)OCO3)cc1OC
IONMODE=positive
INSTRUMENTTYPE=LC-ESI-Orbitrap
INSTRUMENT=Orbitrap
COMMENT=DB#=CCMSLIB00010115973; origin=GNPS
NUM_PEAKS=85
COMPOUND_NAME="2H-benzo[3,4-d]1,3-dioxolen-5-yl-N-[2-(3,4-dimethoxyphenyl)-isopropyl]carboxam ide "
PRECURSOR_MZ=344.149
COLLISION_ENERGY=205060
PARENT_MASS=343.1417235480092
50.015671 0.0003445656543804406
53.002731 0.002106413837239354
55.01836 0.0030113671393709653
58.04356 0.00026527660744580736
63.023571 0.000371313766599353
63.089088 0.0002605736426600645
65.038979 0.014737842413496863
67.018188 0.001387007192670253
67.386673 0.0002508002939646926
68.997543 0.013518745760442584
69.033913 0.0004032057465526717
70.462791 0.00027225757079964435
71.013107 0.0006739201570319942
71.024841 0.0002752704076155109
71.049423 0.000494546140750771
75.04438 0.0003342044350868509
91.018593 0.00030150413306098266
91.054398 0.015875886407821855
92.367729 0.0004442097207783671
93.033333 0.0005203389632475794
93.06974 0.0018336418796662689
95.012909 0.01261842193927194
95.04911 0.0015893816461067499
103.054398 0.0003489746838670745
104.062042 0.0005637679036909235
105.06987 0.0018963235822012476
107.049141 0.002841178601186896
108.05687 0.001637293099861505
109.028503 0.0011694215875048693
109.064941 0.0003139228994483349
111.043907 0.0006482743021847402
112.075821 0.0003047374213511809
115.054153 0.0023791123109876615
115.065948 0.00025403358225489087
116.061722 0.0004322318573396783
117.069687 0.005304723826843597
119.049156 0.0005667072566820128
119.085533 0.004860367138415676
121.064781 0.01049143263109496
122.072021 0.0004395802398174015
123.044167 0.005634225297144705
123.079948 0.0015848991327953386
124.052269 0.0032158726237260017
125.023193 0.003326465780015736
129.069504 0.0004869038229739389
131.049423 0.0013748823615820098
132.05687 0.006136413755672308
133.064621 0.0018345971693883728
135.043869 0.0017668450829437649
135.080124 0.001563147920661278
136.051941 0.03064202009385795
136.089264 0.00040349968185178064
137.022797 0.000985271122613126
137.060501 0.0005310676016650553
137.096481 0.000659590811200434
138.067551 0.030079574899013018
139.039383 0.0029541232398695013
139.07547 0.0061824881138076325
141.598587 0.00035669048546868386
146.073181 0.0005295979251695107
147.080582 0.01897161297803708
148.088501 0.014016010802710113
149.023376 1.0
151.075302 0.1843058831811471
163.075043 0.0004444301722526988
164.083115 0.0419100297851987
166.049866 0.004156318613225016
179.106613 0.24675581773277858
194.082336 0.0004582451313108184
194.118073 0.00044487107520136223
204.100739 0.000544588625424066
216.10228 0.0006536386213934781
242.116531 0.0002987852315442251
286.644836 0.0003726364754453432
298.082794 0.000685898020470683
299.652802 0.0004388454015696292
312.119751 0.00045214597385430816
321.665039 0.0017206972409836633
322.163879 0.0005257032824563173
326.138123 0.0013457827669702258
327.121216 0.005114180269196235
343.679504 0.00667820999575484
344.14859 0.11284859532362167
409.43512 0.00031223277147845855
449.082031 0.0003020185198344233
END IONS

BEGIN IONS
CHARGE=1+
PRECURSORTYPE=M+H
FORMULA=C23H23N5O2S
ONTOLOGY=
INCHIKEY=DKRHILRFORRVNP-UHFFFAOYSA-N
INCHI=InChI=1S/C23H23N5O2S/c1-4-16-7-5-6-15(3)19(16)26-18(29)12-31-23-27-20-21(24-13-25-22(20)30)28(23)17-10-8-14(2)9-11-17/h5-11,13H,4,12H2,1-3H3,(H,26,29)(H,24,25,30)
SMILES=CCc1cccc(C)c1N=C(O)CSc1nc2c(O)ncnc2n1-c1ccc(C)cc1
IONMODE=positive
INSTRUMENTTYPE=LC-ESI-Orbitrap
INSTRUMENT=Orbitrap
COMMENT=DB#=CCMSLIB00010124150; origin=GNPS
NUM_PEAKS=52
COMPOUND_NAME=N-(6-ethyl-2-methylphenyl)-2-[9-(4-methylphenyl)-6-oxohydropurin-8-ylthio]acet amide
PRECURSOR_MZ=434.165
COLLISION_ENERGY=205060
PARENT_MASS=433.15772354800924
50.289631 0.0018721827014804332
66.449318 0.0017340995894655903
92.363373 0.0024140012070006035
97.32132 0.0019345654272130272
127.737068 0.0021406387009813713
130.065109 0.011861829972726832
143.072556 0.010595250361504391
144.080582 0.023183243298938724
148.07486 0.003246004526602728
150.03656 0.003367966260057462
157.075592 0.004134082206413926
157.088745 0.003241798949587047
157.77449 0.002337599891215741
158.060211 0.004850432158084836
158.08374 0.002742036214223682
158.096405 0.023202869325011897
159.067215 0.0027315222716844806
162.021713 0.0024918043817906926
162.036697 0.057125754462993374
164.052444 0.004167025893036756
169.075333 0.0026361958593290563
172.085709 0.018307577678759804
174.036896 0.0024322253740685523
175.032272 0.004438285610548148
184.086411 0.0032424998790896607
185.09494 0.003057454490399719
189.047623 0.05687201798304732
190.03157 0.07037822856890523
193.042633 0.02877666072979378
195.074463 0.0024238142200371914
198.065338 0.007471207568356397
202.042694 0.012614628258533642
211.074997 0.003080585163985962
212.081436 0.23991415015451992
213.089966 0.02563088912206477
216.058609 0.04087190022689088
217.04187 0.004682209077457616
217.618179 0.002467271849199223
230.037781 0.12251897240931199
237.077164 0.01160248605675987
238.084366 0.028667315727386088
239.091965 0.002438533739592073
244.053314 0.7415967314255434
253.05423 0.003325209560398044
256.040588 0.0028773156082280713
257.048553 0.07076724444285568
262.06134 0.016598711551388295
271.038208 0.007181022754274444
271.064026 0.44389164471005
299.058899 1.0
416.153992 0.009597126749782888
434.163208 0.042816278667140495
END IONS

BEGIN IONS
CHARGE=1+
PRECURSORTYPE=M+H
FORMULA=C20H11ClF4N4O4
ONTOLOGY=
INCHIKEY=DFUUOIAMSLOLPI-UHFFFAOYSA-N
INCHI=InChI=1S/C20H11ClF4N4O4/c21-10-3-1-2-9(8-10)15(30)28-19(20(23,24)25)13-14(26-17(19)32)29(18(33)27-16(13)31)12-6-4-11(22)5-7-12/h1-8H,(H,26,32)(H,28,30)(H,27,31,33)
SMILES=O=c1nc(O)c2c(n1-c1ccc(F)cc1)N=C(O)C2(N=C(O)c1cccc(Cl)c1)C(F)(F)F
IONMODE=positive
INSTRUMENTTYPE=LC-ESI-Orbitrap
INSTRUMENT=Orbitrap
COMMENT=DB#=CCMSLIB00010123327; origin=GNPS
NUM_PEAKS=53
COMPOUND_NAME="(3-chlorophenyl)-N-[7-(4-fluorophenyl)-2,4,6-trioxo-3-(trifluoromethyl)(3,5,7- trihydro-5,7-diazaindol-3-yl)]carboxamide "
PRECURSOR_MZ=483.048
COLLISION_ENERGY=205060
PARENT_MASS=482.0407235480092
50.015591 0.012114376127576385
51.023479 0.047290046002215994
51.55999 0.0009952402499086336
53.002838 0.0013240864818456577
55.018341 0.006585988757592106
62.963879 0.0014959421752725036
69.583733 0.001188124699071254
73.391983 0.0012755028048009375
74.015427 0.0016580086203395927
75.023193 0.013317003416810242
77.193916 0.0012515735310326425
79.018066 0.014306442630653836
82.404404 0.001201902159725727
85.976196 0.0010434613621992889
86.999847 0.11681908888927563
88.978981 0.0015815074572318615
91.276199 0.0011380907630102737
92.064842 0.0011594820835001132
104.295563 0.0011649205548110893
110.999443 0.005551228949490379
111.044159 0.005318824942134665
113.015167 0.012321038037393478
114.994667 0.010411772042486788
128.999268 0.0014890534449452672
129.010147 0.047105137977642805
138.994553 1.0
139.00502 0.05328686703445235
148.019241 0.0013219110933212672
156.021042 0.11773674028181433
157.006409 0.001378108630201354
171.035141 0.00963189525649281
182.040955 0.006696208442827889
185.031158 0.002541941490750248
185.409149 0.0017914324498355407
189.045883 0.03047356757916964
190.03244 0.002513661439933172
207.036346 0.0019418968227725472
209.03186 0.04405451813693926
215.024719 0.0015198714490407986
217.020889 0.0044613592987707605
223.023911 0.008239284036128853
233.035706 0.005991382560925382
235.032227 0.00252852659484984
237.026825 0.21229399070674024
255.037643 0.0017152938514818747
261.030304 0.0807290307048839
265.021606 0.12880330427014264
285.027161 0.006242277370738414
328.033508 0.3880320275201151
331.162598 0.001469112383471688
482.96814 0.0017736667768863518
483.047363 0.05159332706821438
505.922729 0.0012762279343090676
END IONS

BEGIN IONS
CHARGE=1+
PRECURSORTYPE=M+H
FORMULA=C15H10O3
ONTOLOGY=
INCHIKEY=IYBLVRRCNVHZQJ-UHFFFAOYSA-N
INCHI=InChI=1S/C15H10O3/c16-11-7-4-8-13-15(11)12(17)9-14(18-13)10-5-2-1-3-6-10/h1-9,16H
SMILES=O=c1cc(-c2ccccc2)oc2cccc(O)c12
IONMODE=positive
INSTRUMENTTYPE=LC-ESI-Orbitrap
INSTRUMENT=Orbitrap
COMMENT=DB#=CCMSLIB00010116297; origin=GNPS
NUM_PEAKS=52
COMPOUND_NAME=5-Hydroxyflavone
PRECURSOR_MZ=239.07
COLLISION_ENERGY=205060
PARENT_MASS=238.06272354800925
52.50219 0.00018508088269597158
53.03891 0.00020323643595090973
55.018188 0.00029959600662436795
56.965439 0.00020400026181600423
58.337891 0.00019283665301846943
59.524632 0.00024113395002675153
62.4646 0.00021769037155192848
65.038902 0.002020554436518021
68.99749 0.007103228010364059
69.033943 0.0010903908003402668
79.021523 0.000294660516419142
79.427193 0.0002557053972993233
81.033707 0.0036844609498726936
84.907211 0.00018643226691883105
86.347481 0.00021293114885403204
95.012917 0.0011349864796946294
95.04911 0.00032603613272379244
99.612556 0.00018842996533523202
103.054199 0.04142356929246105
104.276947 0.00025088741876565034
105.033546 0.003089381845128313
109.028198 0.002184600730006006
111.043999 0.001954101586254801
115.054283 0.00023925376328190356
121.039162 0.0002372560648655026
127.039078 0.0009316912879079433
129.033447 0.014514277844361196
133.029007 0.00029107641043677563
136.200928 0.00027115818210854246
137.023376 0.10350263514047874
139.053757 0.0034604249480569035
141.069672 0.001944818164202114
142.29216 0.00024571690521731847
147.044907 0.00027339090386804945
152.061508 0.0003901975053917293
153.069809 0.0023266723409135805
155.033798 0.01776606081957575
155.084396 0.0019144413971056641
155.465698 0.00022967656205033425
165.069824 0.015324050773032904
169.063812 0.0004534775405230186
176.062225 0.00040512148767895997
183.080383 0.0013049671125960408
193.064041 0.003434866159494126
197.059906 0.00040136111418926404
206.226212 0.0002554703739562173
211.076614 0.0007532498146547161
221.05957 0.007279436761857779
238.059769 0.0016345873513021996
238.118347 0.0013567310039151364
239.069992 1.0
240.027145 0.001454794493826113
END IONS

BEGIN IONS
CHARGE=1+
PRECURSORTYPE=M+H
FORMULA=C16H12O5
ONTOLOGY=
INCHIKEY=DANYIYRPLHHOCZ-UHFFFAOYSA-N
INCHI=InChI=1S/C16H12O5/c1-20-11-4-2-9(3-5-11)14-8-13(19)16-12(18)6-10(17)7-15(16)21-14/h2-8,17-18H,1H3
SMILES=COc1ccc(-c2cc(=O)c3c(O)cc(O)cc3o2)cc1
IONMODE=positive
INSTRUMENTTYPE=LC-ESI-Orbitrap
INSTRUMENT=Orbitrap
COMMENT=DB#=CCMSLIB00010119043; origin=GNPS
NUM_PEAKS=28
COMPOUND_NAME=acacetin
PRECURSOR_MZ=285.076
COLLISION_ENERGY=205060
PARENT_MASS=284.06872354800925
60.337559 0.0012135228377373835
63.377392 0.0011338594375959444
67.018288 0.002308772406553121
71.53083 0.0012897651102653867
90.564972 0.0014525130381617011
94.073082 0.001264351019422719
133.064911 0.027498535024282674
135.043823 0.002279448455580812
153.018219 0.027609966037977447
158.85202 0.0011802890266354334
159.043808 0.001854251166482333
161.615677 0.0013479242796937993
168.057037 0.0017740990338246886
171.028503 0.006661424195876173
171.044403 0.0016436074519979142
174.374222 0.00143247500499729
179.048172 0.004992402653035591
185.406448 0.0014833031866826254
186.015244 0.0015321764383031402
189.206177 0.0014691299437126762
241.049377 0.001933425834107567
242.056915 0.49250797489283316
246.378494 0.0013611200576313382
257.078217 0.0017525948031116621
269.044952 0.005091615353825236
270.051758 0.4621415574634587
284.030823 0.005758246505929059
285.075226 1.0
END IONS

BEGIN IONS
CHARGE=1+
PRECURSORTYPE=M+H
FORMULA=C16H12O5
ONTOLOGY=
INCHIKEY=DANYIYRPLHHOCZ-UHFFFAOYSA-N
INCHI=InChI=1S/C16H12O5/c1-20-11-4-2-9(3-5-11)14-8-13(19)16-12(18)6-10(17)7-15(16)21-14/h2-8,17-18H,1H3
SMILES=COc1ccc(-c2cc(=O)c3c(O)cc(O)cc3o2)cc1
IONMODE=positive
INSTRUMENTTYPE=LC-ESI-Orbitrap
INSTRUMENT=Orbitrap
COMMENT=DB#=CCMSLIB00010119044; origin=GNPS
NUM_PEAKS=34
COMPOUND_NAME=acacetin
PRECURSOR_MZ=285.076
COLLISION_ENERGY=205060
PARENT_MASS=284.06872354800925
51.36087 0.0005362635949843138
66.736938 0.0005490041987528397
67.018143 0.0039698563106020214
67.292847 0.00047502182914242275
68.997757 0.001020261758600016
79.054352 0.0009216668589822198
82.391098 0.00047574572708381624
104.275864 0.00047212623737684866
105.07 0.0006425318127808814
118.041542 0.0011048130381547784
129.018082 0.0006212492133039122
133.064606 0.035749265496953765
135.043869 0.005249997430162308
153.018051 0.03238922081218164
159.043442 0.004566203434721997
163.586273 0.0006651174285523591
171.028519 0.004994171897673841
177.055023 0.001980729547240928
201.05545 0.0005225095340978371
213.053787 0.0008636102440824601
225.054291 0.0005398830846912814
239.070343 0.0011421661719306837
240.232162 0.0018602729297930477
241.050034 0.0018101791922486166
242.056946 0.5719571203397803
243.06398 0.0006819118607926885
257.046997 0.0005588492107557914
257.080719 0.002583591752833445
261.07605 0.0005568222965198896
267.064453 0.0005028195100919336
268.910828 0.0007308473616308899
270.051819 0.32492086709653656
284.06604 0.0006785819302622784
285.075256 1.0
END IONS

BEGIN IONS
CHARGE=1+
PRECURSORTYPE=M+H
FORMULA=C23H23N3O3
ONTOLOGY=
INCHIKEY=DCCAEOPQQCUJLL-UHFFFAOYSA-N
INCHI=InChI=1S/C23H23N3O3/c27-21(24-17-9-3-1-4-10-17)16-26-20-12-6-5-11-18(20)19(15-22(26)28)23(29)25-13-7-2-8-14-25/h1,3-6,9-12,15H,2,7-8,13-14,16H2,(H,24,27)
SMILES=O=C(c1cc(=O)n(CC(O)=Nc2ccccc2)c2ccccc12)N1CCCCC1
IONMODE=positive
INSTRUMENTTYPE=LC-ESI-Orbitrap
INSTRUMENT=Orbitrap
COMMENT=DB#=CCMSLIB00010124558; origin=GNPS
NUM_PEAKS=33
COMPOUND_NAME=2-[2-oxo-4-(piperidylcarbonyl)hydroquinolyl]-N-phenylacetamide
PRECURSOR_MZ=390.181
COLLISION_ENERGY=205060
PARENT_MASS=389.1737235480092
58.91684 0.004068620983529395
60.899361 0.0045945820659751314
69.070328 0.10024461647631036
73.958214 0.004175596118942087
82.065681 0.006842842828565214
84.081123 0.04960793612871248
98.096588 0.1864309172404694
104.288513 0.004318229632825677
106.06485 0.005931771258633785
107.27047 0.004635589201216664
112.075737 0.3019034442427765
118.661453 0.005213254932445202
121.242241 0.0044911727684095295
128.049347 0.018570883507643375
130.065048 0.04718316639269146
130.116104 0.005232867040604196
133.051788 0.007844843263597431
146.059677 0.004979692553460824
156.04454 0.010365890621489878
158.060074 0.0944929200289546
169.075943 0.044966998170725185
186.054901 0.11673126776232978
198.12796 0.0044983044441037085
212.671692 0.004298617524666684
213.065567 0.019704819943017912
225.13829 0.06448639454569442
241.133347 0.05923748123477833
257.12851 0.3172008886067915
257.159393 0.01075456694682266
257.270355 0.0049707779588430995
269.128326 0.4596008401113968
297.123199 1.0
310.154022 0.008126544453517522
END IONS

BEGIN IONS
CHARGE=1+
PRECURSORTYPE=M+H
FORMULA=C14H13N3O2
ONTOLOGY=
INCHIKEY=OYGOCOVQYGJSNQ-UHFFFAOYSA-N
INCHI=InChI=1S/C14H13N3O2/c1-10-7-13(18)16(2)14(19)17(10)9-12-6-4-3-5-11(12)8-15/h3-7H,9H2,1-2H3
SMILES=Cc1cc(=O)n(C)c(=O)n1Cc1ccccc1C#N
IONMODE=positive
INSTRUMENTTYPE=LC-ESI-Orbitrap
INSTRUMENT=Orbitrap
COMMENT=DB#=CCMSLIB00010117305; origin=GNPS
NUM_PEAKS=44
COMPOUND_NAME="2-[(3,6-dimethyl-2,4-dioxo-1,3-dihydropyrimidinyl)methyl]benzenecarbonitrile "
PRECURSOR_MZ=256.108
COLLISION_ENERGY=205060
PARENT_MASS=255.10072354800926
63.023571 0.0015425154266430895
65.039124 0.00046968306909340855
67.018204 0.005568130546068895
69.033852 0.0005941080720954172
87.661507 0.00034937263162089087
89.038719 0.03543325779496319
90.033974 0.00042971493748621484
92.378357 0.0004868722079830584
96.043907 0.000707732340582512
103.05397 0.001341321293103999
110.023773 0.00212656717575031
115.041191 0.0006641774988920449
115.054382 0.00163701508627107
115.726433 0.0007295774352029016
116.049454 1.0
116.374313 0.000633101701340363
120.300613 0.00032103085458551545
129.069717 0.001520548519227419
130.065048 0.013255045783745149
131.060303 0.000529723242411902
132.080765 0.0006538640155582551
133.075912 0.027352860159019294
134.059967 0.13416181102818336
144.080688 0.0004204300955347977
146.061844 0.0004908243564521747
147.092056 0.0016300446874299914
154.065094 0.004504068709779445
156.081024 0.00461459351936439
157.075943 0.028394156537346234
157.607803 0.00033723195635788623
158.060059 0.018101922768955343
159.055389 0.0016450953350247086
170.084885 0.0003634217073432976
171.091934 0.005623189929535899
182.05925 0.0005372214966991981
184.063431 0.001372464764430837
185.399643 0.000378066312287078
197.071198 0.0008502397763062311
198.078964 0.0017267505121280609
199.086411 0.1863705449947772
212.117752 0.000583036642479879
215.081512 0.005339826298202271
225.066193 0.0008682003962326605
256.107697 0.6471938717227892
END IONS

BEGIN IONS
CHARGE=1+
PRECURSORTYPE=M+H
FORMULA=C17H14N2
ONTOLOGY=
INCHIKEY=CTSPAMFJBXKSOY-UHFFFAOYSA-N
INCHI=InChI=1S/C17H14N2/c1-10-14-9-18-8-7-12(14)11(2)17-16(10)13-5-3-4-6-15(13)19-17/h3-9,19H,1-2H3
SMILES=Cc1c2ccncc2c(C)c2c1[nH]c1ccccc12
IONMODE=positive
INSTRUMENTTYPE=LC-ESI-Orbitrap
INSTRUMENT=Orbitrap
COMMENT=DB#=CCMSLIB00010116173; origin=GNPS
NUM_PEAKS=18
COMPOUND_NAME=ellipticine
PRECURSOR_MZ=247.123
COLLISION_ENERGY=205060
PARENT_MASS=246.11572354800924
58.571339 0.00012728763579063148
59.857101 0.00015150407066161963
61.785191 0.0005996291979492555
87.766907 0.0001273784474213977
191.073441 0.0006570221485934974
204.081421 0.0008348918627209054
205.088638 0.002150328604912982
206.095551 0.0003125433625536909
211.99791 0.00014272561302088643
220.113358 0.00022751340561293372
230.096954 0.0002037812994393653
231.091248 0.017535514007149176
232.099335 0.17861355219501399
233.016174 0.00015898089492803722
245.107132 0.0018475323573948637
246.11499 0.00901314516517667
247.122635 1.0
248.126556 0.0010126707652175471
END IONS

BEGIN IONS
CHARGE=1+
PRECURSORTYPE=M+H
FORMULA=C8H15NOS2
ONTOLOGY=
INCHIKEY=FCCDDURTIIUXBY-UHFFFAOYSA-N
INCHI=InChI=1S/C8H15NOS2/c9-8(10)4-2-1-3-7-5-6-11-12-7/h7H,1-6H2,(H2,9,10)
SMILES=N=C(O)CCCCC1CCSS1
IONMODE=positive
INSTRUMENTTYPE=LC-ESI-Orbitrap
INSTRUMENT=Orbitrap
COMMENT=DB#=CCMSLIB00010123962; origin=GNPS
NUM_PEAKS=38
COMPOUND_NAME=lipoamide
PRECURSOR_MZ=206.067
COLLISION_ENERGY=205060
PARENT_MASS=205.05972354800926
55.05497 0.044282207142606715
67.055038 0.08343080546256174
73.011383 0.01449535018605053
78.967628 0.019500591182151736
79.054947 0.048830016980440885
81.070427 0.13569445475834688
85.011276 0.05194176351996175
86.830566 0.011700244285354225
87.026993 0.013070053221576948
89.307854 0.011112512881642379
90.740578 0.011996180436025478
91.054558 0.027225021622387127
91.100853 0.011323422600964056
92.353447 0.014498938963997104
93.070236 0.20871669993647862
95.085968 0.19680692623101295
98.096802 0.021637846479257
101.042328 0.9165393800744975
104.252083 0.013615823529298092
104.98304 0.2173328036665164
105.070427 0.0862394382955182
106.07814 0.02171293475629299
110.018944 0.013356327277776659
111.027077 0.02026886572256041
115.057762 0.013191243492234299
118.998329 0.016778089019913026
123.080948 0.0947141993864294
127.057747 0.5017578110442157
136.17041 0.01336736967145842
137.041534 0.09786680278257279
137.605652 0.014489000809683517
138.049683 0.06064427398055931
140.107391 0.019481543053050696
145.01329 0.013835843223407224
155.05275 0.02122430883587497
161.045181 0.8022547463658792
171.029633 0.22463541466810844
189.040146 1.0
END IONS

BEGIN IONS
CHARGE=1+
PRECURSORTYPE=M+H
FORMULA=C21H24N2O4
ONTOLOGY=
INCHIKEY=VNBUDGXHADQNRB-UHFFFAOYSA-N
INCHI=InChI=1S/C21H24N2O4/c1-3-23(4-2)21(25)16-6-5-7-17(12-16)22-11-10-18(24)15-8-9-19-20(13-15)27-14-26-19/h5-9,12-13,22H,3-4,10-11,14H2,1-2H3
SMILES=CCN(CC)C(=O)c1cccc(NCCC(=O)c2ccc3c(c2)OCO3)c1
IONMODE=positive
INSTRUMENTTYPE=LC-ESI-Orbitrap
INSTRUMENT=Orbitrap
COMMENT=DB#=CCMSLIB00010125987; origin=GNPS
NUM_PEAKS=21
COMPOUND_NAME="{3-[(3-(2H-benzo[3,4-d]1,3-dioxolan-5-yl)-3-oxopropyl)amino]phenyl}-N,N-diethy lcarboxamide "
PRECURSOR_MZ=369.181
COLLISION_ENERGY=205060
PARENT_MASS=368.1737235480092
52.830521 0.004183361523277307
53.0392 0.005676578277130041
58.541389 0.004004803409478885
70.065849 0.00493879969703986
77.038887 0.005704048756175952
87.864433 0.005031022019551132
92.049622 0.005963056130037399
104.049507 0.03517398624121435
104.275589 0.005386176070073268
105.033371 0.03126140515424674
120.044212 0.08981473124060607
130.064972 0.012041880707482567
132.044388 1.0
150.054855 0.24916116930056237
155.069809 0.0067969813867882695
160.914154 0.005144828289884192
163.075043 0.009918805112648586
165.054611 0.16428327557992142
177.102448 0.019588413736809265
189.102127 0.5864888410989761
268.132324 0.02246496532833109
END IONS

BEGIN IONS
CHARGE=1+
PRECURSORTYPE=M+H
FORMULA=C18H15Cl2NO6
ONTOLOGY=
INCHIKEY=SOXHRQURNPRMDQ-UHFFFAOYSA-N
INCHI=InChI=1S/C18H15Cl2NO6/c1-2-25-18(24)14-13(10-4-3-8(19)5-11(10)20)16-15(27-17(14)21)12(23)6-9(7-22)26-16/h3-6,13,22H,2,7,21H2,1H3
SMILES=CCOC(=O)C1=C(N)Oc2c(oc(CO)cc2=O)C1c1ccc(Cl)cc1Cl
IONMODE=positive
INSTRUMENTTYPE=LC-ESI-Orbitrap
INSTRUMENT=Orbitrap
COMMENT=DB#=CCMSLIB00010124061; origin=GNPS
NUM_PEAKS=87
COMPOUND_NAME="ethyl 2-amino-4-(2,4-dichlorophenyl)-6-(hydroxymethyl)-8-oxo-4H-pyrano[3,2-b]p yran-3-carboxylate "
PRECURSOR_MZ=412.035
COLLISION_ENERGY=205060
PARENT_MASS=411.02772354800925
55.018219 0.006079627715963643
67.018204 0.014076956703666025
68.026047 0.0014056904058789008
68.997414 0.0021867409238387177
69.547997 0.0009779006485025354
95.013031 0.004465724014111714
101.023117 0.0013331666735736888
104.27523 0.0014163851498133098
115.053787 0.002443414778264537
124.015213 0.001922380222210042
125.014969 0.002568409597997944
128.061752 0.005974017119611353
129.091644 0.0010835112448548255
136.192917 0.0013879772362375357
143.034073 0.0023207594337667824
144.056488 0.002312069954320075
153.010315 0.0017826801295668228
154.988861 0.001201153428133326
158.975784 0.0013836324965141819
163.030594 0.002201780407496481
165.010071 0.01319230085384162
166.989288 0.007721939331391346
170.976013 0.00200192238022221
171.043747 0.00225926465614393
172.954987 0.012449684571896085
179.025482 0.004156913283005651
181.005157 0.004344071301857811
182.975845 0.004653216243711825
184.051804 0.006794504505829304
186.023117 0.0016987932318313012
189.01004 0.0018595486015953885
191.026001 0.008225929139300377
193.004929 0.032141047630378956
195.971939 0.0015784773625691984
197.987015 0.004300958115372224
198.971237 0.0060802961374595435
201.035126 0.0016256010780301886
202.017517 0.001375611438563375
205.004608 0.0058603854653082555
207.020508 0.053835669912075834
207.971481 0.004464387171119914
208.992142 0.0046111056894700886
213.982544 0.0020213066036033267
218.013306 0.009852198638826465
219.020477 0.008585874114842833
221.692123 0.0010253585747114758
223.966965 0.0019200407469743901
225.504639 0.0011884534197112151
230.056854 0.008328197628173164
234.007599 0.0056194195160361
235.01532 0.10497626435268056
247.015701 0.020491463589075855
249.983276 0.0012646534702438802
256.017334 0.005172245535278618
257.023193 0.001783014340314773
262.001953 0.004897858511211434
263.010193 1.0
263.986084 0.002305051528613119
264.01828 0.10360967660431185
265.025818 0.1113302790927114
266.998535 0.001664703735540372
271.974487 0.0020176302853758734
275.007202 0.0014093667241063539
278.044403 0.001678740586954284
285.018311 0.0015597615606839823
286.026794 0.005038561236098504
289.984344 0.006377075281639397
291.992371 0.002588128032127011
294.992157 0.009394664124882525
298.986603 0.023195896961489566
299.994659 0.023205254862432172
302.02005 0.007296154838502682
310.988159 0.004001171074460818
319.98703 0.004227097540075211
322.987061 0.0017733222286242147
330.014191 0.008001339516677785
335.983459 0.00422542648633546
337.997192 0.00691816248257091
338.980255 0.018434396435441848
347.981903 0.007889378916114438
365.992432 0.3600078071630721
367.01358 0.02595480668581917
382.997375 0.0018338143740032164
384.003357 0.00258745961063111
394.025665 0.0018358196384909182
395.00943 0.002088817174689284
412.03421 0.3436007331246967
END IONS

BEGIN IONS
CHARGE=1+
PRECURSORTYPE=M+H
FORMULA=C21H20BrN3O3
ONTOLOGY=
INCHIKEY=HTVPFVSNIFRBPB-UHFFFAOYSA-N
INCHI=InChI=1S/C21H20BrN3O3/c1-2-11-23-21(28)17-12-20(27)25(18-6-4-3-5-16(17)18)13-19(26)24-15-9-7-14(22)8-10-15/h3-10,12H,2,11,13H2,1H3,(H,23,28)(H,24,26)
SMILES=CCCN=C(O)c1cc(=O)n(CC(=O)Nc2ccc(Br)cc2)c2ccccc12
IONMODE=positive
INSTRUMENTTYPE=LC-ESI-Orbitrap
INSTRUMENT=Orbitrap
COMMENT=DB#=CCMSLIB00010125264; origin=GNPS
NUM_PEAKS=38
COMPOUND_NAME=N-(4-bromophenyl)-2-[2-oxo-4-(N-propylcarbamoyl)hydroquinolyl]acetamide
PRECURSOR_MZ=442.076
COLLISION_ENERGY=205060
PARENT_MASS=441.06872354800925
58.189381 0.004136256970010119
65.187538 0.0036908760145535962
66.271492 0.003670692587569162
66.732857 0.0037931387112747315
70.065269 0.004258703093715688
72.08075 0.004044758767680682
73.943367 0.004087816745247476
74.199387 0.003187635901741695
76.213287 0.003390815733385003
79.164146 0.00382139550905294
86.060097 0.025627570023036016
92.363136 0.004595093543456264
108.081642 0.0034284914637559474
124.418869 0.003619561239208594
128.049194 0.13897500484402248
128.059509 0.005981022196387436
130.064911 0.4123891257077655
133.051865 0.03145519817434175
144.044037 0.04686457189605804
145.074768 0.0038106310146612415
146.059814 0.19208163792546665
156.044525 0.029167743116105836
157.075806 0.019357252039871688
158.059723 0.2008385541131133
173.070847 0.0346872376154492
174.053223 0.007010376972593597
186.054367 0.02230806906499602
187.122391 0.005261146633942604
191.033066 0.003933077138366811
199.049866 0.0068341083769295355
201.065475 0.0204633038386187
215.118423 0.027950009688044952
231.112289 0.3790434132058817
243.112183 0.27536518547223837
271.106934 1.0
284.138062 0.01521023057546987
405.264526 0.0042062261835561585
438.919556 0.003941150509160584
END IONS

BEGIN IONS
CHARGE=1+
PRECURSORTYPE=M+H
FORMULA=C29H23ClN2O3
ONTOLOGY=
INCHIKEY=GTIJUYRURIFXCS-UHFFFAOYSA-N
INCHI=InChI=1S/C29H23ClN2O3/c1-16-10-11-26-19(12-16)29(34)20(15-35-26)28-27-24(31-22-8-4-5-9-23(22)32-28)13-17(14-25(27)33)18-6-2-3-7-21(18)30/h2-12,15,17,28,31-32H,13-14H2,1H3
SMILES=Cc1ccc2occ(C3Nc4ccccc4NC4=C3C(=O)CC(c3ccccc3Cl)C4)c(=O)c2c1
IONMODE=positive
INSTRUMENTTYPE=LC-ESI-Orbitrap
INSTRUMENT=Orbitrap
COMMENT=DB#=CCMSLIB00010116974; origin=GNPS
NUM_PEAKS=121
COMPOUND_NAME="3-[3-(2-chlorophenyl)-1-oxo(2,3,4-trihydro-5H,10H,11H-benzo[b]benzo[2,1-f]1,4- diazepin-11-yl)]-6-methylchromen-4-one "
PRECURSOR_MZ=483.147
COLLISION_ENERGY=205060
PARENT_MASS=482.1397235480092
64.973282 0.0012010523859881177
65.038834 0.004918454181038432
67.018028 0.0016739806726264286
79.053947 0.00623746044557634
91.05378 0.008660707893896407
92.049438 0.015874811616899156
93.057243 0.004164736315588198
102.046127 0.011069118376361153
105.069237 0.008780516393178112
107.048447 0.008406253929477676
107.060043 0.0025404594785770904
115.053658 0.004819417433954174
119.051041 0.0017381505499506856
119.06028 0.03242655980094727
125.01458 0.005635079631850367
128.0616 0.005860601512851223
129.068924 0.001798611185811113
130.064865 0.026041100620964115
131.059647 0.007412548141317648
132.067978 0.013115877816102486
133.07576 0.06687576897212097
135.043854 0.07792856668604127
135.055389 0.0028360860232443325
137.014999 0.07603833723607356
137.026993 0.0026105641422434754
138.984726 0.001297492664047695
138.994507 0.026971007455946265
139.997375 0.008482293379486189
145.064102 0.02025134562007204
145.075668 0.005454810496708234
153.069412 0.0017663407850757927
155.025421 0.0014180430116221662
155.085159 0.0012826556981923754
156.067413 0.005209258711802695
157.07576 0.24967349402014638
158.083099 0.002942912177402633
159.054947 0.003158048182304767
159.0914 0.0024469865936885774
161.059372 0.12241201586516759
165.009888 0.11216634909377667
165.023804 0.00202413306681197
166.064804 0.001790079930444304
167.072861 0.0019807349416851605
168.067352 0.008117304019445328
169.075729 0.019109641097505202
170.083008 0.0024948358085719827
171.079544 0.008636226900235128
173.059509 0.011638857865205424
181.076813 0.0046621455958877865
182.083618 0.019078854393355413
183.091446 0.09709829749526051
185.071152 0.17607880506044393
187.074631 0.0024161998895387894
191.070068 0.017026160167271952
195.091675 0.0019425297546077124
198.078033 0.006021953516527823
199.030945 0.0030801541115643392
199.074188 0.005263042713028228
203.07193 0.0024443901246638962
206.083511 0.004975947423727795
209.069733 0.0025334119197958135
209.106613 0.005033440666417159
211.086365 0.09144986459414037
213.054245 0.016092173166679588
214.041321 0.0022611535963507
219.091003 0.014650020085542526
220.074554 0.007304980138866582
221.082886 0.005537155657205257
223.08667 0.0015107740482179135
233.105881 0.0014373310672340816
237.101456 0.009149585918829185
245.10553 0.008486744469242784
254.096069 0.0015886681189583411
255.06633 0.012101771199891394
256.098572 0.0030022600408239116
257.105682 0.005544574140132917
259.121582 0.005389898771091211
262.084747 0.002786011263482629
268.10965 0.001853137035329412
269.108398 0.00920336992005472
270.114685 0.002553812747846878
271.121948 0.017040997133127272
273.091125 0.006770107519782312
281.083008 0.01981921898953586
283.122284 0.001955141175584734
285.102539 0.0022589280514724018
285.136047 0.004630987967591616
286.10733 0.0015515757043200423
287.116852 0.03561391099081629
288.12439 0.002133184765848569
290.070862 0.002725921551768585
292.076111 0.00624858816996783
293.081024 0.0021736154978043145
295.061859 0.0022374144509821887
295.12265 0.005648432901120153
297.080566 0.0017722755714179206
298.101257 0.006211495755329531
299.115936 0.0067871700305159295
303.112152 0.0063798953177874075
304.090302 0.001429541660160039
305.082916 0.028975110618853554
307.09787 0.008293492988977247
309.067444 0.004996348251778859
311.113739 0.002299358783428148
313.132629 0.002932897225450293
317.126923 0.003209235714505619
319.099915 0.0022693139275711256
321.116089 0.00466511298905885
323.093597 0.6160601253204321
327.112305 0.001560477883833234
329.081268 0.0017437144121464304
331.098724 0.07504574422035268
333.069855 0.0022181263953702734
345.121918 0.0015026137169974877
347.090942 0.018582928809641356
349.109192 0.2942771226227008
351.077606 0.006062013324337186
365.091675 0.0028071539398264594
447.120697 0.0021754701185362295
465.135956 0.0334484558242324
483.145966 1.0
END IONS

BEGIN IONS
CHARGE=1+
PRECURSORTYPE=M+H
FORMULA=C12H11N5O
ONTOLOGY=
INCHIKEY=BUDWTFCZGZYQHZ-UHFFFAOYSA-N
INCHI=InChI=1S/C12H11N5O/c18-9-3-1-2-8(4-9)5-13-11-10-12(15-6-14-10)17-7-16-11/h1-4,6-7,18H,5H2,(H2,13,14,15,16,17)
SMILES=C1=CC(=CC(=C1)O)CNC2=NC=NC3=C2NC=N3
IONMODE=positive
INSTRUMENTTYPE=LC-ESI-Orbitrap
INSTRUMENT=Orbitrap
COMMENT=DB#=CCMSLIB00010102068; origin=GNPS
NUM_PEAKS=22
COMPOUND_NAME=meta-topolin
PRECURSOR_MZ=242.104
COLLISION_ENERGY=205060
PARENT_MASS=241.09672354800927
51.023392 0.0018771759210510278
53.038914 0.007283023871643189
55.018269 0.001347502638421106
62.402035 0.0007135670429719872
77.038773 0.0024570318735896244
79.054413 0.05073391312209634
80.723175 0.000719340331767357
81.033623 0.003322223878412164
92.426025 0.0009321697602185195
95.049332 0.00813580695142988
104.34166 0.0010477143535054711
105.044823 0.0025585258231079796
106.765388 0.0008776120241141192
107.049309 1.0
107.335365 0.0008456151505049691
119.035782 0.0009225157353231281
136.061996 0.09700454059781649
148.061951 0.011138213021898937
148.074432 0.0012032449557229734
161.582642 0.0007150642473970509
173.071487 0.0007891546919116309
242.103088 0.5138894164823837
END IONS

BEGIN IONS
CHARGE=1+
PRECURSORTYPE=M+H
FORMULA=C16H12O5
ONTOLOGY=
INCHIKEY=XLTFNNCXVBYBSX-UHFFFAOYSA-N
INCHI=InChI=1S/C16H12O5/c1-20-15-12(19)7-10(17)14-11(18)8-13(21-16(14)15)9-5-3-2-4-6-9/h2-8,17,19H,1H3
SMILES=COc1c(O)cc(O)c2c(=O)cc(-c3ccccc3)oc12
IONMODE=positive
INSTRUMENTTYPE=LC-ESI-Orbitrap
INSTRUMENT=Orbitrap
COMMENT=DB#=CCMSLIB00010119075; origin=GNPS
NUM_PEAKS=56
COMPOUND_NAME=Wogonin
PRECURSOR_MZ=285.076
COLLISION_ENERGY=205060
PARENT_MASS=284.06872354800925
60.84026 0.0006287801730506663
68.997147 0.001000691350825746
72.723213 0.0005886032276357668
77.820343 0.0006017759966242584
86.15432 0.0007679724320290609
99.00708 0.0023047954806864153
103.054024 0.008229687425560133
104.061577 0.003204276056450584
105.033493 0.006949074733728941
112.01487 0.0011600818555864945
112.292168 0.0005800409277932473
112.590462 0.0006090210195679288
116.061661 0.0038712572595678762
116.960876 0.0007905856854593048
127.00222 0.0024681378161437112
131.048782 0.007108026146190073
139.002396 0.0023473874337492048
140.009964 0.0012290193466262672
140.061981 0.002415446740189745
141.069733 0.0026189660210619403
144.056549 0.00590271778374309
145.064163 0.0012617317229476881
154.995636 0.0006790562413567425
155.048767 0.0031763936954249438
158.071671 0.0012850036148273566
168.005432 0.012941367346593775
168.056824 0.017018778440831543
169.064865 0.0007706069858267592
171.043442 0.006674422500318891
172.051254 0.003944585673603813
173.060028 0.0011741328091742188
179.048782 0.029748283752860413
185.059387 0.0014209026815586285
186.015823 0.011154481233304887
186.067352 0.002382514817718516
186.901215 0.0007172572714233682
195.043503 0.0008129793927397406
196.050903 0.0049461552090287915
197.059753 0.0038251525681081556
199.038849 0.0032725549090409324
200.048508 0.0008834537068281706
213.054245 0.006518325187805265
217.048996 0.002625332859406378
218.056839 0.006306463153240359
220.648315 0.000804417092897221
223.039368 0.0008423985768140384
224.022583 0.0036811302938339805
224.046158 0.007956352469048933
241.02272 0.0009958613355299658
241.048645 0.01625014737035306
242.056839 0.029771116552440465
269.043915 0.02424294450027015
270.051758 1.0
283.838043 0.0007739001780738821
284.030823 0.04193770553636112
285.075256 0.6185390038005634
END IONS

BEGIN IONS
CHARGE=1+
PRECURSORTYPE=M+H
FORMULA=C20H21NO4
ONTOLOGY=
INCHIKEY=VZTUIEROBZXUFA-UHFFFAOYSA-N
INCHI=InChI=1S/C20H21NO4/c1-22-17-4-3-12-7-16-14-9-19-18(24-11-25-19)8-13(14)5-6-21(16)10-15(12)20(17)23-2/h3-4,8-9,16H,5-7,10-11H2,1-2H3
SMILES=COc1ccc2c(c1OC)CN1CCc3cc4c(cc3C1C2)OCO4
IONMODE=positive
INSTRUMENTTYPE=LC-ESI-Orbitrap
INSTRUMENT=Orbitrap
COMMENT=DB#=CCMSLIB00010117501; origin=GNPS
NUM_PEAKS=79
COMPOUND_NAME=Canadine
PRECURSOR_MZ=340.154
COLLISION_ENERGY=205060
PARENT_MASS=339.1467235480092
55.971378 0.00035995978497777763
56.949921 0.00035336087703318207
65.038971 0.00046894820006271093
79.054413 0.001792454978950548
82.379028 0.00033249981320833155
91.054283 0.033480943098894
93.070053 0.000579852427131559
100.845993 0.00034442042110824616
103.054337 0.001779044295063144
105.069962 0.003788731066189814
107.049103 0.0006514825085301529
115.054123 0.001505189615362428
118.064957 0.006642652318228292
118.628258 0.0003298389632306721
119.049057 0.038382973795736554
120.080856 0.0006559527364926208
121.064667 0.004469589358473328
131.04895 0.002281838506841684
133.064941 0.001761908421207017
134.072678 0.0007982549932978511
135.044006 0.003954023066802022
135.080429 0.0005651645352548786
136.051788 0.0025384508786871663
137.059479 0.0078772867078623
143.048828 0.004404983921015755
146.059998 0.005205154726297521
149.05957 0.0817470587496517
150.067459 0.016709605689706152
151.075211 0.011239217437635531
159.043945 0.005304457647463774
161.046783 0.005782133435453207
161.059937 0.0017983088489013988
163.075394 0.00044223326628700947
165.090729 0.018840840087812307
173.059723 0.0020443842548353497
174.054871 0.02309937082605768
174.090881 0.0008159230371495102
175.061981 0.0009219313002594648
176.070389 1.0
188.071289 0.003092972014031407
189.07785 0.009536699187929874
190.085754 0.0015454216670246397
192.101547 0.0016560065920961686
204.101837 0.0016702687479764236
207.081375 0.0004079615185747551
219.080231 0.0006960783541557262
222.102631 0.0007004421481190878
225.784073 0.0003971052506659043
233.097046 0.0005533503613540703
234.104156 0.0005265289935792626
235.073669 0.0004483000042360732
249.089508 0.0005084352137311779
250.098022 0.0007327980838474273
253.12149 0.000593582413016282
260.10791 0.0006143370428420262
264.100189 0.0017533937012785064
265.08551 0.000693523938177173
265.119934 0.0007446122577482355
277.085571 0.002337290620376108
278.118317 0.002703530011301162
280.102356 0.0005500509073817725
281.115509 0.0006651060604157696
282.111176 0.0008706301126901896
282.145508 0.0005228038036105393
290.115845 0.002287160206797003
292.097931 0.007199302133554659
293.080841 0.0007145978700002363
293.116791 0.000356979633002799
294.113556 0.0028923439257158806
296.128387 0.005424621632454877
306.111755 0.008588052953894707
307.118866 0.0007908046133604044
308.127838 0.001727530239495656
310.107056 0.004552288575778985
323.125732 0.0008753132086508703
324.121918 0.02167368740802772
325.130249 0.0016110914444732762
340.153473 0.5324861045092467
340.675842 0.0003886969647365003
END IONS

BEGIN IONS
CHARGE=1+
PRECURSORTYPE=M+H
FORMULA=C18H21NO3
ONTOLOGY=
INCHIKEY=FQTHQCIXDOKIDK-UHFFFAOYSA-N
INCHI=InChI=1S/C18H21NO3/c1-5-19(15-9-7-6-8-13(15)2)18(20)14-10-11-16(21-3)17(12-14)22-4/h6-12H,5H2,1-4H3
SMILES=CCN(C(=O)c1ccc(OC)c(OC)c1)c1ccccc1C
IONMODE=positive
INSTRUMENTTYPE=LC-ESI-Orbitrap
INSTRUMENT=Orbitrap
COMMENT=DB#=CCMSLIB00010115143; origin=GNPS
NUM_PEAKS=61
COMPOUND_NAME="(3,4-dimethoxyphenyl)-N-ethyl-N-(2-methylphenyl)carboxamide "
PRECURSOR_MZ=300.159
COLLISION_ENERGY=205060
PARENT_MASS=299.1517235480092
51.023411 0.0011029534252052038
53.039028 0.0045527515093277595
55.018391 0.0011551201412622065
57.745449 0.000695044775700656
58.327881 0.0006308227261010684
65.038918 0.0166126879974469
66.046677 0.008405855297420422
67.054459 0.007830048729850058
68.026299 0.0008508873602238872
68.997467 0.005953581266976101
69.033768 0.0027117924834337797
73.946999 0.000953248101394561
77.038963 0.0034219612230333147
78.046562 0.0011873407600032967
79.054413 0.0536756054407693
81.033699 0.003843678709141187
81.070084 0.007909613931231118
82.041519 0.0012156159968577224
82.392967 0.0007868844985068922
83.049232 0.0011141320072174186
87.215309 0.0007509376857617305
91.05423 0.09715174114086417
94.041344 0.020044512675196875
95.049042 0.006063175208272326
97.028343 0.0009764820169493606
98.036133 0.006517770876769065
105.033249 0.0066885182373085834
105.044121 0.0009175204765319918
105.196899 0.0006959215272310258
106.041382 0.014049724086293392
106.064957 0.16624940600083818
107.012932 0.0008776282819001661
107.048973 0.011113702398967537
109.028328 0.014756166631888857
109.064667 0.03841377236373966
111.007874 0.005528137586864158
116.049232 0.02760605624887118
119.036453 0.0014361190067457262
119.059868 0.00832607090815677
121.028389 0.0034526475265962576
122.036041 0.027187626581002197
124.051643 0.011768854980036368
126.031013 0.020774189136347137
126.040733 0.0012962771376517437
132.044052 0.02155581312567181
134.059814 1.0
134.095978 0.022098741510853306
137.023544 0.0011380234864199956
137.059402 0.0016342648526093003
141.054138 0.006913405004848436
152.070419 0.003031587604136163
154.025513 0.00578787522773621
155.070114 0.02722839552716439
155.084717 0.0010023461870952695
162.091019 0.30462929191792903
164.070404 0.014120083396605568
165.054276 0.7601205621029411
192.101013 0.001116762261808528
209.678207 0.0016726227320629787
254.117218 0.0015069166928230874
300.158539 0.8381538593725615
END IONS

BEGIN IONS
CHARGE=1+
PRECURSORTYPE=M+H
FORMULA=C22H21N5O2S
ONTOLOGY=
INCHIKEY=JBMKWMCVEFIMKX-UHFFFAOYSA-N
INCHI=InChI=1S/C22H21N5O2S/c1-3-15-6-4-5-7-17(15)25-18(28)12-30-22-26-19-20(23-13-24-21(19)29)27(22)16-10-8-14(2)9-11-16/h4-11,13H,3,12H2,1-2H3,(H,25,28)(H,23,24,29)
SMILES=CCc1ccccc1N=C(O)CSc1nc2c(O)ncnc2n1-c1ccc(C)cc1
IONMODE=positive
INSTRUMENTTYPE=LC-ESI-Orbitrap
INSTRUMENT=Orbitrap
COMMENT=DB#=CCMSLIB00010123843; origin=GNPS
NUM_PEAKS=45
COMPOUND_NAME=N-(2-ethylphenyl)-2-[9-(4-methylphenyl)-6-oxohydropurin-8-ylthio]acetamide
PRECURSOR_MZ=420.149
COLLISION_ENERGY=205060
PARENT_MASS=419.1417235480092
73.949966 0.0021747804042648532
80.330597 0.0018113962667190464
82.39254 0.0028352556272366234
130.065018 0.021239557309729734
144.081009 0.004248279756679946
145.076126 0.003293168746508873
148.075455 0.002165573035914875
157.076126 0.007824421623811481
158.060196 0.007745852080558334
159.0681 0.0025289571734606817
160.076309 0.0019267952833721066
162.036942 0.07141787334344098
164.053055 0.009017696561968658
169.076065 0.0022257278424680656
172.086899 0.023042360032655466
175.032776 0.010771393320361174
184.086624 0.007619404221885301
185.094666 0.003408567763161933
189.047867 0.0662562226464432
189.065613 0.0031108628531793044
190.031937 0.08455494650518988
193.042923 0.03358847974072051
198.066101 0.003364372395082038
202.043198 0.01500801041046448
209.08194 0.0018844413889622068
211.073547 0.0035847354109248496
212.081772 0.22987299969922598
213.089401 0.028239612553939832
216.059174 0.045245621896349585
217.042679 0.007693676993241792
230.011719 0.004710489647848852
230.038116 0.14564338020906864
237.077209 0.007944731236917864
238.084503 0.024222744655122672
239.093033 0.0024970382965140902
244.053741 0.8192188468691879
253.054596 0.008324688637493631
257.048889 0.06042488935812366
262.064545 0.027490132770251606
271.064545 0.4937242577326548
285.08075 0.0021250606151749707
299.059479 1.0
313.074677 0.031788132316021435
388.443665 0.0017911400563490943
420.149475 0.018892292205041954
END IONS

BEGIN IONS
CHARGE=1+
PRECURSORTYPE=M+H
FORMULA=C28H27N3O3
ONTOLOGY=
INCHIKEY=FGSVYYREXDSLJB-UHFFFAOYSA-N
INCHI=InChI=1S/C28H27N3O3/c1-18-13-19(2)27(20(3)14-18)30-25(32)17-31-24-12-8-7-11-22(24)23(15-26(31)33)28(34)29-16-21-9-5-4-6-10-21/h4-15H,16-17H2,1-3H3,(H,29,34)(H,30,32)
SMILES=Cc1cc(C)c(N=C(O)Cn2c(=O)cc(C(O)=NCc3ccccc3)c3ccccc32)c(C)c1
IONMODE=positive
INSTRUMENTTYPE=LC-ESI-Orbitrap
INSTRUMENT=Orbitrap
COMMENT=DB#=CCMSLIB00010122241; origin=GNPS
NUM_PEAKS=35
COMPOUND_NAME="2-{2-oxo-4-[N-benzylcarbamoyl]hydroquinolyl}-N-(2,4,6-trimethylphenyl)acetamid e "
PRECURSOR_MZ=454.213
COLLISION_ENERGY=205060
PARENT_MASS=453.20572354800925
59.155499 0.001066168142756069
65.039017 0.0168730721582599
78.693497 0.001017578840512432
82.028877 0.011789023152278174
82.394981 0.0012465428187108665
91.054337 1.0
118.644943 0.0010423978366224911
128.049103 0.010011493642142237
130.065613 0.005023574550671301
130.738937 0.001086792378960203
132.445648 0.0009406749089037973
146.060471 0.004916957736395695
155.224014 0.0011189522049056318
156.044281 0.001657978852817061
158.060654 0.00426502213434977
180.080734 0.03960063089188985
192.081116 0.004158754883399657
199.050522 0.006709168906202372
204.080887 0.013031371211083114
205.087906 0.0012937338676525284
206.059738 0.008576885754315708
214.424988 0.001061274256199156
216.080948 0.0020036969817304223
217.088776 0.02130658381549768
218.096191 0.14017489352301105
221.187042 0.0010913367021916222
232.076096 0.01581144833873525
233.107086 0.02624521447807399
235.086472 0.004109816017830526
261.10199 0.019898193177083186
279.111542 0.00968290411617807
291.112457 0.07111061861522586
319.107117 0.606499360998241
332.138519 0.011059484491972627
375.231262 0.0011308373579724208
END IONS

BEGIN IONS
CHARGE=1+
PRECURSORTYPE=M+H
FORMULA=C18H18O
ONTOLOGY=
INCHIKEY=KPFVYLKSZJDQAE-UHFFFAOYSA-N
INCHI=InChI=1S/C18H18O/c1-13-11-14(2)17(15(3)12-13)9-10-18(19)16-7-5-4-6-8-16/h4-12H,1-3H3/b10-9+
SMILES=Cc1cc(C)c(C=CC(=O)c2ccccc2)c(C)c1
IONMODE=positive
INSTRUMENTTYPE=LC-ESI-Orbitrap
INSTRUMENT=Orbitrap
COMMENT=DB#=CCMSLIB00010115419; origin=GNPS
NUM_PEAKS=90
COMPOUND_NAME="(2E)-1-phenyl-3-(2,4,6-trimethylphenyl)prop-2-en-1-one "
PRECURSOR_MZ=251.143
COLLISION_ENERGY=205060
PARENT_MASS=250.13572354800925
50.01582 0.0013993759575329002
51.02359 0.003637937434252983
53.039131 0.00864620717409007
55.01849 0.0008952925740882659
58.169449 0.0005905542562921862
58.90303 0.0006175076454113341
65.039062 0.0008374252978569526
66.746536 0.0007595355039942722
67.054733 0.004586806745080127
72.544037 0.0006791153919693862
73.956909 0.0007373127097001177
77.038696 0.0058012494491057305
79.054543 0.0656049891713384
81.033867 0.007357175091195967
82.401527 0.0006834059314618221
84.023216 0.0006182777422433097
84.95993 0.0026304307503625507
91.054413 0.05606304936782751
92.380058 0.0008200431122209307
93.069878 0.0008222433888837183
95.049271 0.03648872809267037
98.984253 0.005558998988532818
103.05426 0.05739949741280469
104.785599 0.0006796654611350831
105.033546 0.5562524931884936
105.069893 0.11525225181814361
107.049103 0.019790938512608575
107.08532 0.0032146042043326526
115.054291 0.021681416221275663
116.06208 0.0011624061609506779
117.069878 0.08609099508172158
119.085548 0.011383351342597818
121.101257 0.01504637193080658
123.080673 0.0007506243835099825
128.062027 0.014956270601465428
129.069748 0.024110191615493732
129.080109 0.0013093846420248881
130.077759 0.14840569053152744
131.04921 0.1196375132209124
131.085739 0.002503144745420289
133.101044 0.004698360771883457
141.069916 0.001405426718355566
143.085632 0.04048366041546064
144.093689 0.0034125190901503955
145.101257 0.43851513889356447
147.080765 0.005485509747995713
149.09642 0.0035574073083949574
153.068619 0.000777467758795991
155.08577 0.011264866444306708
155.54451 0.000727521478550713
158.072784 0.008489657489532733
160.088531 0.0025984167249189912
165.070282 0.0015100498736711153
166.077576 0.001025989007857848
167.085526 0.0014014662203625484
173.096146 0.22376890670232874
174.992081 0.0008117920747354772
178.077377 0.002584995037275987
179.0858 0.005733040872559316
180.093002 0.0015539453930937276
181.101486 0.003454544374409638
191.085571 0.0038424531500590884
192.075851 0.0008222433888837183
192.092987 0.007662353464324604
193.101501 0.006094766355921594
194.109131 0.003823970826091673
195.117386 0.001278800796412141
202.07782 0.0033161469723202996
203.064072 0.0011486544318082556
203.085678 0.028616578248548973
203.106354 0.0013318274639853216
204.09346 0.0008507369716668174
205.10231 0.0057701155343272865
206.108856 0.004276787763293356
207.116714 0.0034117489933184197
208.124817 0.0033685135568946437
209.13208 0.0011815485679169298
212.186203 0.0010219184960316911
216.092499 0.0009922147610840588
217.101593 0.016139469376879448
218.108917 0.16211374418219346
221.096512 0.01039971766049863
221.132492 0.0033320989781255093
222.10437 0.0007705368873082101
223.148163 0.004399673214910043
231.117035 0.0010822060765920706
233.132294 0.11433264618693155
235.111282 0.0013229163435010318
236.119232 0.012737841656209852
251.142838 1.0
END IONS

BEGIN IONS
CHARGE=1+
PRECURSORTYPE=M+H
FORMULA=C16H14O3
ONTOLOGY=
INCHIKEY=GUNGQVJAKLIYDG-UHFFFAOYSA-N
INCHI=InChI=1S/C16H14O3/c1-19-13-8-9-14(16(18)11-13)15(17)10-7-12-5-3-2-4-6-12/h2-11,18H,1H3/b10-7+
SMILES=COc1ccc(C(=O)C=Cc2ccccc2)c(O)c1
IONMODE=positive
INSTRUMENTTYPE=LC-ESI-Orbitrap
INSTRUMENT=Orbitrap
COMMENT=DB#=CCMSLIB00010119867; origin=GNPS
NUM_PEAKS=57
COMPOUND_NAME=2'-Hydroxy-4'-Methoxychalcone
PRECURSOR_MZ=255.102
COLLISION_ENERGY=205060
PARENT_MASS=254.09472354800926
53.03907 0.008242085141827293
53.187248 0.00132933562328375
64.75766 0.0013666162612014272
65.03894 0.009315563236388354
67.054703 0.005939367383323094
73.943558 0.001478458174954459
75.711212 0.0012971619220671245
79.054573 0.03506269530841046
81.0336 0.0017399333340483046
82.388771 0.001939614559059425
83.049538 0.0018875238047086978
91.054359 0.022134485049698154
95.04921 0.09862567226437999
95.748947 0.0013487419827477463
102.046944 0.0016214524025839057
103.054207 0.41863960398770045
105.033287 0.0028879727044447204
107.048981 0.022676331033679737
108.02037 0.010297627164000591
110.036346 0.002084140867699187
121.064713 0.024234968114840705
123.044037 0.02227543650264718
125.05986 0.0029936862941564897
131.049133 0.49418702930002795
141.055283 0.0022199853839471617
142.328323 0.0013890867826860547
144.018372 0.0015816182963157026
144.08078 0.003610604247643532
149.059814 0.01646884947355143
151.03891 0.9830796973220756
152.061478 0.0020877157233899235
153.069519 0.005390371687960039
157.957306 0.0014289208889542576
159.044144 0.002570321241639306
165.069153 0.01465435486366777
166.077728 0.027209758743203305
167.085388 0.006846359341429871
169.049393 0.0318744347259439
169.06456 0.002309867469885671
177.054718 0.03578021991490822
177.069977 0.005937835302312779
178.077194 0.021770871156583275
179.085602 0.006947987381780799
181.065094 0.00227616168765873
194.072433 0.06099163432699001
195.080307 0.009819107195112049
197.059631 0.012972640608011456
205.063965 0.010829769968250174
209.095932 0.1532944082617979
212.082458 0.003275589200054542
213.090332 0.0025677677732887805
222.067184 0.008130753921744366
225.054565 0.003051394678878374
227.105988 0.007498515158154169
237.090439 0.03503562854389489
240.077728 0.05259225553477032
255.101227 1.0
END IONS

BEGIN IONS
CHARGE=1+
PRECURSORTYPE=M+H
FORMULA=C16H14O3
ONTOLOGY=
INCHIKEY=GUNGQVJAKLIYDG-UHFFFAOYSA-N
INCHI=InChI=1S/C16H14O3/c1-19-13-8-9-14(16(18)11-13)15(17)10-7-12-5-3-2-4-6-12/h2-11,18H,1H3/b10-7+
SMILES=COc1ccc(C(=O)C=Cc2ccccc2)c(O)c1
IONMODE=positive
INSTRUMENTTYPE=LC-ESI-Orbitrap
INSTRUMENT=Orbitrap
COMMENT=DB#=CCMSLIB00010119868; origin=GNPS
NUM_PEAKS=60
COMPOUND_NAME=2'-Hydroxy-4'-Methoxychalcone
PRECURSOR_MZ=255.102
COLLISION_ENERGY=205060
PARENT_MASS=254.09472354800926
53.039268 0.004329901010159483
57.07045 0.0029595646762569103
65.039177 0.002787707314249327
68.831718 0.002886299169295783
71.085876 0.0025000723609945293
79.054581 0.021538250021708297
81.479248 0.0022531404671625806
91.054367 0.01924350198269125
92.371773 0.002923384178992156
95.049278 0.05147670699586095
98.984612 0.002484695649657009
103.054314 0.2685994891313786
104.27494 0.0023824857448840778
105.033684 0.00391201626675157
107.04908 0.034330769342093836
108.020561 0.003090718978841645
109.513908 0.0023119337752178066
110.990143 0.03184336015514197
121.028343 0.012186495991200903
121.064377 0.020157059538626298
123.044083 0.015206663000376278
125.060043 0.0041290992503400965
131.049316 0.5651203725143998
132.341446 0.002775044140206663
133.028458 0.0038839763813713858
144.021225 0.0023833902573156965
149.059753 0.023422349416770384
151.039093 0.9073372239428059
153.07106 0.003259862803554372
165.070221 0.004168897797331326
166.077682 0.010972640307968393
169.049423 0.04184364959912009
177.054733 0.0478677023937017
177.069962 0.005961641436799907
178.077881 0.021491215375264116
179.086792 0.002709919245130105
181.063904 0.004630199137456945
188.170151 0.0024340429534863528
194.073044 0.05158886653738169
195.080658 0.004334423572317578
197.059937 0.010929223711250687
205.064972 0.013328895192335523
209.09613 0.19178467538857855
212.01442 0.007676597007149266
213.090668 0.0031033821528843094
215.149109 0.0022630901039103883
220.485489 0.0023463052476193234
221.019577 0.018853657124663522
222.067535 0.004090205215780486
223.074081 0.004688992445512171
223.521835 0.004286484413441778
227.106354 0.009328236707285305
232.527451 0.003325892211062549
237.090698 0.04777272858838172
240.077957 0.05447787924397233
255.066589 0.06992604706359085
255.10141 1.0
313.037079 0.01824220672088917
331.047699 0.0025064039480158615
378.033325 0.002490122724246722
END IONS

BEGIN IONS
CHARGE=1+
PRECURSORTYPE=M+H
FORMULA=C10H20O3
ONTOLOGY=
INCHIKEY=YJCJVMMDTBEITC-UHFFFAOYSA-N
INCHI=InChI=1S/C10H20O3/c11-9-7-5-3-1-2-4-6-8-10(12)13/h11H,1-9H2,(H,12,13)
SMILES=O=C(O)CCCCCCCCCO
IONMODE=positive
INSTRUMENTTYPE=LC-ESI-Orbitrap
INSTRUMENT=Orbitrap
COMMENT=DB#=CCMSLIB00010123833; origin=GNPS
NUM_PEAKS=13
COMPOUND_NAME=10-Hydroxydecanoic acid
PRECURSOR_MZ=189.149
COLLISION_ENERGY=205060
PARENT_MASS=188.14172354800925
55.054771 0.2637765178059502
67.055122 0.16213289163534433
69.070412 1.0
73.42662 0.10431929668089444
77.227966 0.11715614448620755
83.085991 0.1861502197872205
93.070251 0.17672166656048927
97.065697 0.12425941262661655
101.410049 0.10597566413964452
107.085777 0.19404981843664396
109.101738 0.10744091227623112
135.117264 0.2431993374530165
153.126846 0.1602535516340702
END IONS

BEGIN IONS
CHARGE=1+
PRECURSORTYPE=M+H
FORMULA=C24H26ClN3O3
ONTOLOGY=
INCHIKEY=BUQYDIOQGKXORD-UHFFFAOYSA-N
INCHI=InChI=1S/C24H26ClN3O3/c1-16-3-6-20-18(12-24(30)31-22(20)11-16)14-27-7-9-28(10-8-27)15-23(29)26-21-13-19(25)5-4-17(21)2/h3-6,11-13H,7-10,14-15H2,1-2H3,(H,26,29)
SMILES=Cc1ccc2c(CN3CCN(CC(O)=Nc4cc(Cl)ccc4C)CC3)cc(=O)oc2c1
IONMODE=positive
INSTRUMENTTYPE=LC-ESI-Orbitrap
INSTRUMENT=Orbitrap
COMMENT=DB#=CCMSLIB00010120162; origin=GNPS
NUM_PEAKS=95
COMPOUND_NAME=N-(5-chloro-2-methylphenyl)-2-{4-[(7-methyl-2-oxochromen-4-yl)methyl]piperazin yl}acetamide
PRECURSOR_MZ=440.174
COLLISION_ENERGY=205060
PARENT_MASS=439.1667235480092
52.584049 0.0006537281743385553
54.03429 0.0009292636439660752
55.042191 0.0042757169745204745
56.04998 0.1321447063287064
57.057919 0.0033298901464064706
58.065609 0.034818746142805355
58.068821 0.0012225700299189767
58.75061 0.0005805741110185375
63.73856 0.0006602844347304436
68.049957 0.008895810152783297
68.141853 0.0006359572580131736
69.045212 0.00678296897491316
70.065529 0.30217286546708955
72.044777 0.005684795359271855
72.081131 0.031491443993922
73.071167 0.0007553502104128253
73.962196 0.0005938591649705218
80.049583 0.00508541513291869
81.044937 0.0051332068205121924
82.052811 0.053886594293603485
82.065071 0.0067803809773900455
83.06057 0.007658747336734883
83.07328 0.0007118718520245128
84.068428 0.005059190091351137
84.080803 0.00461163905302065
85.076424 0.0080274507171945
91.054283 0.002825748228903895
95.060669 0.0008317824039287873
96.068466 0.01539858526252733
97.076118 1.0
97.323891 0.0007548326109082025
98.083878 0.039207472342501805
99.091751 0.03629821806018543
110.083611 0.000813838954435198
111.09166 0.01820121404689141
112.099274 0.005844216006695667
115.054192 0.0026311308151657346
117.069923 0.004844041230596273
119.08577 0.0010640120483362023
121.064796 0.0007665648663463185
128.062164 0.004205323441891778
129.069839 0.006549186531991876
131.085648 0.0078100589252529376
133.064835 0.001028815282021854
141.070267 0.0008745706296442694
142.041702 0.0007491390163573521
142.07724 0.0007249843728082896
143.08522 0.005175649979891259
145.064728 0.042808584629330605
145.100616 0.0010132872968831711
147.080566 0.003220159051426444
154.04184 0.004377856610099367
155.07222 0.0007179105129117785
155.085327 0.0012939987615569186
156.080582 0.0009584217493931578
157.065521 0.0009418585652452292
158.096222 0.000873880496971439
159.080322 0.01438029450376614
161.059998 0.005070749813621045
167.07338 0.0014968977673690434
168.057892 0.0008821620890454033
169.087906 0.0010122520978739255
170.096237 0.001167877015597171
171.080872 0.0013733640189324096
173.059753 0.010642363414548722
173.096558 0.0010533149919073317
174.091217 0.0016057661965080323
175.075409 0.0037724377228589368
182.098434 0.0007393046257695195
183.080872 0.002777956541310393
185.059708 0.0014925844381638536
185.083313 0.0009720518696815573
186.091232 0.020650494902766346
187.07634 0.007226724283543079
188.106323 0.0022120477495895003
197.059402 0.0015189820128996149
198.092117 0.0007845083158399079
199.075607 0.0014202930406848739
200.071548 0.0030162248466050734
200.106964 0.009554024189495249
212.070786 0.0014432399520564832
213.078522 0.0008045221633519882
214.086014 0.02835548112858086
216.10199 0.007666511329304224
226.085815 0.009269516995120934
228.101654 0.04595006855605439
240.10199 0.0031409663272191604
242.118774 0.0007560403430856556
243.149307 0.0009422036315816444
255.113327 0.0011802994037081174
256.120056 0.00800743686968242
258.135895 0.0014523842099714854
265.099121 0.001034336343404497
271.143738 0.36217403524197
440.173004 0.7205732172967262
END IONS

BEGIN IONS
CHARGE=1+
PRECURSORTYPE=M+H
FORMULA=C20H16BrN5O2S
ONTOLOGY=
INCHIKEY=QJDFVSQDJWSMQF-UHFFFAOYSA-N
INCHI=InChI=1S/C20H16BrN5O2S/c1-12-5-7-15(8-6-12)26-18-17(19(28)23-11-22-18)25-20(26)29-10-16(27)24-14-4-2-3-13(21)9-14/h2-9,11H,10H2,1H3,(H,24,27)(H,22,23,28)
SMILES=Cc1ccc(-n2c(SCC(O)=Nc3cccc(Br)c3)nc3c(O)ncnc32)cc1
IONMODE=positive
INSTRUMENTTYPE=LC-ESI-Orbitrap
INSTRUMENT=Orbitrap
COMMENT=DB#=CCMSLIB00010125142; origin=GNPS
NUM_PEAKS=57
COMPOUND_NAME=N-(3-bromophenyl)-2-[9-(4-methylphenyl)-6-oxohydropurin-8-ylthio]acetamide
PRECURSOR_MZ=470.028
COLLISION_ENERGY=205060
PARENT_MASS=469.02072354800924
61.558361 0.0013433925829614327
89.753647 0.001521920357333173
104.267517 0.0017262826044541716
105.05777 0.0013557314356177949
105.069344 0.0025433460037926547
105.528267 0.0014197392337726737
118.06572 0.0014127986291534698
118.812828 0.001162165684571113
130.06488 0.01360782653423993
131.072739 0.002160841571445427
135.025772 0.002192459881377355
136.189774 0.0013877353346952342
145.076126 0.008669200758530967
148.075668 0.005099802038532695
150.037186 0.005351977339697097
157.075821 0.007896865700071797
158.059708 0.008053800482294904
158.084259 0.002137706222714748
159.067963 0.006431241357983277
162.037079 0.08719982848994808
164.052368 0.013324804101434624
169.075897 0.005512768013375316
170.191162 0.0013383799240697855
171.055237 0.001411641861716936
172.086533 0.026386250816485015
174.037155 0.002264950640733483
175.032333 0.011136200111512382
181.725739 0.0013592017379273967
184.086533 0.00816986281509381
185.070923 0.0017174140541074113
185.093811 0.004677967513343312
189.047852 0.07992646043816808
190.03183 0.09216698786242487
193.042755 0.04134556730574212
194.967545 0.0018134257513397294
198.065979 0.007639292150870236
202.042633 0.01825224779192376
207.059021 0.005051603395343779
211.072815 0.005147615092576098
212.081619 0.2504147011259974
213.089264 0.020254997813709544
216.058548 0.04745291378149589
217.04306 0.006420059272763448
230.038025 0.1290366363670716
237.076859 0.006933664014584524
238.084427 0.027447392144932165
239.092606 0.0023216322451236468
244.053558 0.7212699455625244
253.05336 0.008724725595484597
256.039673 0.0017355367439464433
257.048553 0.054282468726792356
262.06424 0.018683722045750924
271.064301 0.35134651585504006
299.059265 1.0
315.41507 0.0013507187767261477
470.028564 0.011239152413363903
470.092682 0.0015863137446335631
END IONS

BEGIN IONS
CHARGE=1+
PRECURSORTYPE=M+H
FORMULA=C23H38N2O9
ONTOLOGY=
INCHIKEY=ZZHGKGQIPZGFLE-UHFFFAOYSA-N
INCHI=InChI=1S/C23H38N2O9/c1-10(2)9-12(20(28)29)24-18(26)13(11(3)4)25-19(27)16-14-15(32-22(5,6)31-14)17-21(30-16)34-23(7,8)33-17/h10-17,21H,9H2,1-8H3,(H,24,26)(H,25,27)(H,28,29)
SMILES=CC(C)CC(N=C(O)C(N=C(O)C1OC2OC(C)(C)OC2C2OC(C)(C)OC12)C(C)C)C(=O)O
IONMODE=positive
INSTRUMENTTYPE=LC-ESI-Orbitrap
INSTRUMENT=Orbitrap
COMMENT=DB#=CCMSLIB00010121081; origin=GNPS
NUM_PEAKS=171
COMPOUND_NAME="4-methyl-2-{3-methyl-2-[(4,4,11,11-tetramethyl-3,5,8,10,12-pentaoxatricyclo[7. 3.0.0<2,6>]dodec-7-yl)carbonylamino]butanoylamino}pentanoic acid "
PRECURSOR_MZ=487.265
COLLISION_ENERGY=205060
PARENT_MASS=486.2577235480092
53.039379 0.0021226862494815465
54.12635 0.0022667279701370645
55.018379 0.004372052047932454
55.054771 0.059021738081994464
56.050152 0.003243510888332299
57.033989 0.01657572961311294
57.057831 0.0036582738786126983
57.070492 0.004534098983669913
58.065681 0.01681172653936551
59.049679 0.07841656994222256
67.054573 0.017135820410840427
68.049973 0.0033496130486365874
69.033943 0.09916822336755396
69.070381 0.017861173361284285
70.029007 0.0038839821105327295
70.065613 0.05303436102385369
71.013184 0.30778371878426214
71.049629 0.011026908150896563
71.073418 0.003464717816481845
72.044868 0.0038601895048887376
72.081207 0.6562380032216474
73.028839 0.016461267888663467
73.065086 0.02335726526504641
73.828758 0.002036518434446549
73.949059 0.0025374492397619453
74.024048 0.023672356528980358
79.054626 0.009608997463193804
81.033623 0.009225743599306798
81.070328 0.018925410181306085
82.028976 0.010351069541928036
82.065514 0.046411657090678765
83.012871 0.010292552592911732
83.049423 0.045834204121265126
84.044724 0.04790158863870928
84.08107 0.0044890859459650635
85.028687 0.1363393468608229
85.052422 0.002279588838052736
85.06514 0.010765832532208437
86.096718 0.13002337462743674
87.044289 0.004568180283646442
91.054642 0.003187566112899129
92.373749 0.002905270062150144
93.070099 0.013537349568035598
94.065208 0.003810032120017619
95.013 0.0126608814195826
95.04921 0.03238237932486874
95.085693 0.05822372122782706
96.044502 0.02970538966822176
96.081032 0.004536671157253047
97.028549 0.26055603962433405
97.064919 0.03846942810935596
98.023651 0.008919654942913822
98.060181 0.08038749795029917
99.007797 0.008295902849003766
99.044113 0.016324942688757352
99.080597 0.004073679912288881
100.039574 0.013497480877497019
100.051964 0.09329916629423737
100.07576 0.0253571302259333
101.059868 0.0091357175238971
105.070053 0.009455310091601532
107.049248 0.011439742010989611
108.081284 0.0030454535224309614
109.028633 0.003602329103179528
109.065033 0.021977937181090666
110.060173 0.022024236305587083
110.096581 0.005224727590741461
111.044289 0.03165959854800801
111.080627 0.010982538156587496
112.039429 0.09014889669829368
112.075684 0.020099607422006876
112.112427 0.023736017825162933
113.023354 0.057962645609138934
113.046638 0.0035643895428282978
113.051147 0.0032647313203931568
113.059677 0.054757717324553645
114.09111 0.0030866082997611094
115.038986 0.025047183309165617
116.070709 0.003863404721867655
120.080643 0.004262734670649249
121.02874 0.01669983698849917
121.064941 0.004144414685825073
121.124893 0.0025046540265769835
122.059677 0.0030036557017050296
122.096283 0.003781095167207359
123.007462 0.027200092598248994
123.043983 0.045958311496651354
123.080078 0.020862899932801965
124.039101 0.011317563765790734
124.075768 0.014019632114873273
125.023193 0.003503943463624643
125.059731 0.03169689506496346
126.091408 0.003848614723764633
127.038986 0.02441057034733989
127.075699 0.0038511868973477676
127.085449 0.006408570482379004
128.070526 0.05563675764658978
129.054596 0.008917082769330687
130.086273 0.011541985910919199
132.101776 0.023440860906498277
133.064392 0.004635699840203717
135.043915 0.04988602055809736
136.075943 0.0030769626488243557
136.202637 0.0036981425691512792
137.059891 0.025595699325768998
138.054962 0.02501824635635536
138.09137 0.03256436060587549
139.038498 0.0036872108314229585
139.075562 0.010435308226775684
140.03418 0.12510087743271356
140.070389 0.004472366817674691
141.018585 0.011709177193822926
141.041977 0.0024172001247504188
141.054459 0.004222865980110668
141.090988 0.002223644062619566
142.05014 0.014112873407261889
142.086014 0.01158571286183248
143.081238 0.016469627452808652
147.080383 0.004901919806058112
148.076035 0.0027965957282627216
149.059433 0.0044479311686349155
150.091354 0.002377331434211838
151.075043 0.04635185405487089
152.070602 0.01382607605274242
153.05484 0.05968600190983889
154.086609 0.010852643390639218
155.070251 0.004918638934348484
156.101807 0.005308966275589108
161.095047 0.0027695879056398123
162.053925 0.002409483604001016
163.038803 0.03322733834692834
164.10762 0.0030435243922436106
166.08606 0.06168136556695528
167.070709 0.0030293774375363723
169.086044 0.004628626362850097
170.08136 0.01326148395124445
171.064926 0.043369418785226724
176.070129 0.0036293369258024377
178.122314 0.0036280508390108706
180.065536 0.012378585368833616
181.0495 0.012961182685413524
184.060425 0.004062105131164777
184.096954 0.026622639628835352
189.091644 0.007925509853032432
192.100281 0.0025818192340710112
194.081085 0.07242983592747756
198.076416 0.008693303667598008
199.060471 0.005421498869851232
199.083084 0.0043218946630613365
200.092072 0.009270113593615865
206.117035 0.010754257751084332
210.11087 0.0023953366492937777
211.144241 0.00452638246292051
212.091675 0.4181023146347031
224.128281 0.0022184997154532974
230.101608 0.004892274155121359
234.112152 0.01854022718723173
242.13942 0.008897791467457181
252.122925 0.2246337064056768
253.11853 0.0028872648470682043
270.133392 0.58980326087306
292.154572 0.002304667530488295
298.129059 0.0024956514190360136
310.163635 0.017426476025734598
321.041168 0.0025741027133216084
328.175171 1.0
353.171509 0.005332115837837316
356.170044 0.5903929316669936
429.220642 0.0034775786843975164
479.335144 0.0025978953189656003
487.105225 0.004474295947862041
END IONS

BEGIN IONS
CHARGE=1+
PRECURSORTYPE=M+H
FORMULA=C10H11NO4
ONTOLOGY=
INCHIKEY=VGHIVGWATFYZKU-UHFFFAOYSA-N
INCHI=InChI=1S/C10H11NO4/c1-14-9-4-7(5-12)2-3-8(9)15-6-10(11)13/h2-5H,6H2,1H3,(H2,11,13)
SMILES=COc1cc(C=O)ccc1OCC(=N)O
IONMODE=positive
INSTRUMENTTYPE=LC-ESI-Orbitrap
INSTRUMENT=Orbitrap
COMMENT=DB#=CCMSLIB00010123583; origin=GNPS
NUM_PEAKS=56
COMPOUND_NAME=2-(4-formyl-2-methoxyphenoxy)acetamide
PRECURSOR_MZ=210.076
COLLISION_ENERGY=205060
PARENT_MASS=209.06872354800925
51.023491 0.005643501543027344
52.032398 0.001069258809234508
53.039059 0.030125485220271187
55.018379 0.0052684437467069535
58.02919 0.020974419079775052
59.03701 0.009895590275164248
65.038918 0.029227841159582362
66.043419 0.0011935612210883988
66.046753 0.01086033183152507
67.054611 0.0019630318605576404
69.033943 0.002051634963816815
77.038857 0.00664136173507242
78.0466 0.0016228131485284789
79.054459 0.12303917246422004
81.02874 0.0023355089839675693
81.033638 0.028286755771567435
81.070053 0.08046581146033828
81.075577 0.0025918558264067357
82.392906 0.0012770029785266507
82.398666 0.0014292626802438735
87.858818 0.0014413058204926935
91.054283 0.06318949666125442
92.371277 0.0012873256701684964
93.033569 0.03974150259680212
94.041328 0.17589221389477305
95.049118 0.030302691426789534
105.033417 0.1491185926730395
105.044823 0.006294691340767105
107.049011 0.05101775287906322
108.056267 0.0018258260841514426
109.064697 0.3416630286347165
110.036102 0.006133399283863267
111.043968 0.08032215400165593
121.028412 0.00648695147259648
121.064743 0.008801815073280359
122.036041 0.11368681383670792
125.059578 0.13482252497338681
131.955917 0.001252916698029011
133.028229 0.036060172690028924
133.039398 0.0022073355627479866
135.043808 0.012333465951246788
136.203445 0.0015557156528564822
137.059601 0.9472273895418231
144.461517 0.0012219486231034742
149.023163 0.1377821266895343
150.030991 0.5458131807868902
151.038864 0.03426617490510651
152.046631 0.021922386262217874
152.069855 0.0028004602200023656
153.054428 1.0
155.069183 0.0106276411574318
165.054443 0.33514984032086365
183.064926 0.11399950537102549
193.050217 0.008886977279325584
210.075684 0.09253733911117323
223.017395 0.0014081871848084387
END IONS

BEGIN IONS
CHARGE=1+
PRECURSORTYPE=M+H
FORMULA=C20H18N4O2S
ONTOLOGY=
INCHIKEY=VXPFXXTZSHHVOO-UHFFFAOYSA-N
INCHI=InChI=1S/C20H18N4O2S/c1-13-6-8-15(9-7-13)24-18-17(19(25)22-12-21-18)23-20(24)27-11-14-4-3-5-16(10-14)26-2/h3-10,12H,11H2,1-2H3,(H,21,22,25)
SMILES=COc1cccc(CSc2nc3c(O)ncnc3n2-c2ccc(C)cc2)c1
IONMODE=positive
INSTRUMENTTYPE=LC-ESI-Orbitrap
INSTRUMENT=Orbitrap
COMMENT=DB#=CCMSLIB00010119341; origin=GNPS
NUM_PEAKS=38
COMPOUND_NAME=8-[(3-methoxyphenyl)methylthio]-9-(4-methylphenyl)hydropurin-6-one
PRECURSOR_MZ=379.122
COLLISION_ENERGY=205060
PARENT_MASS=378.11472354800924
50.015652 0.0018596510985360883
51.023411 0.0022910523189626033
53.03904 0.01127480908020501
55.018242 0.0007324509929543712
57.584721 0.0004990893872491751
63.02335 0.0006080111753459005
65.038918 0.023952891400543543
77.038857 0.001995914176724936
78.046593 0.01693829868896297
79.05439 0.0021846429737392083
81.033546 0.0032160746686198693
88.738739 0.0005050010175393637
91.054291 0.2465915387131238
92.37352 0.0007552107695715975
93.069977 0.005852366196529488
95.04908 0.011765769975805175
95.055359 0.0006810198094297301
103.054459 0.001072074153125708
104.279747 0.0005227359084099296
105.044731 0.002957884215695881
106.041153 0.021826182403648184
106.048882 0.0009698029491054447
107.049057 0.0005645606927130141
109.064987 0.0005905718659898441
119.059967 0.0005775662793514291
120.719543 0.0008397470827212948
121.064636 1.0
121.41095 0.0007618613536480597
124.052147 0.0010701528732813966
124.956947 0.0005271696311275711
136.19809 0.0005589446439373349
137.451141 0.0005403230085232408
162.091019 0.0029841909704872204
212.081177 0.0005681076708871273
257.048065 0.0035109172293430273
258.057404 0.0005064789251119109
271.064728 0.0011252788257374057
379.121399 0.33502834552828764
END IONS

BEGIN IONS
CHARGE=1+
PRECURSORTYPE=M+H
FORMULA=C9H8O3
ONTOLOGY=
INCHIKEY=PMOWTIHVNWZYFI-UHFFFAOYSA-N
INCHI=InChI=1S/C9H8O3/c10-8-4-2-1-3-7(8)5-6-9(11)12/h1-6,10H,(H,11,12)/b6-5+
SMILES=O=C(O)C=Cc1ccccc1O
IONMODE=positive
INSTRUMENTTYPE=LC-ESI-Orbitrap
INSTRUMENT=Orbitrap
COMMENT=DB#=CCMSLIB00010119355; origin=GNPS
NUM_PEAKS=20
COMPOUND_NAME=2-Hydroxycinnamic acid
PRECURSOR_MZ=165.055
COLLISION_ENERGY=205060
PARENT_MASS=164.04772354800926
53.0392 0.05170952760575746
54.865028 0.0038058615739164324
54.94759 0.003337027001279602
73.94384 0.006180600262866102
74.079376 0.0037216568865935315
91.054443 0.4135407559606631
92.364487 0.00486995668334863
93.070007 0.04147604156619291
95.049332 0.25031008851839354
102.046181 0.009759537340437767
102.157356 0.0034834337387012
103.054298 1.0
104.273537 0.004934537396931025
110.866241 0.004884109731076632
119.0494 0.018242802788697495
121.06488 0.1176615406865037
123.044144 0.8836303114514926
147.044159 0.5804772621773596
156.654694 0.003917777690824412
165.054062 0.018514446158535782
END IONS

BEGIN IONS
CHARGE=1+
PRECURSORTYPE=M+H
FORMULA=C6H7NO5
ONTOLOGY=
INCHIKEY=JKCBZBFTTXFZGH-UHFFFAOYSA-N
INCHI=InChI=1S/C6H7NO5/c8-4(1-2-5(9)10)7-3-6(11)12/h1-2H,3H2,(H,7,8)(H,9,10)(H,11,12)/b2-1-
SMILES=O=C(O)C=CC(O)=NCC(=O)O
IONMODE=positive
INSTRUMENTTYPE=LC-ESI-Orbitrap
INSTRUMENT=Orbitrap
COMMENT=DB#=CCMSLIB00010125527; origin=GNPS
NUM_PEAKS=28
COMPOUND_NAME=(2Z)-3-[N-(carboxymethyl)carbamoyl]prop-2-enoic acid
PRECURSOR_MZ=174.04
COLLISION_ENERGY=205060
PARENT_MASS=173.03272354800924
53.002701 0.0068509082523026885
53.939732 0.0008460681404365189
55.018452 0.001871063077944205
55.934952 0.0012203943603409607
56.935478 0.0008031825112972392
61.229061 0.0007392800837718223
68.997887 0.00124481928819512
69.184593 0.0008366957843994578
71.013191 0.04893903509606523
72.081047 0.0013402469132997425
72.937553 0.0017063368203231305
76.039688 0.11588435421484791
82.005211 0.001450727110221463
82.029053 0.05495381558554646
82.393898 0.0007739294000300484
90.947861 0.0009315553879260765
92.368202 0.0007324638248357778
99.00779 0.46928210308853213
105.935349 0.0007673971518830057
110.023727 1.0
113.963791 0.0010761168795280194
117.018311 0.007993483656457141
128.0345 0.011356455409028078
129.953476 0.000778473572654078
138.01857 0.010805758489153485
156.029114 0.06799615903808955
174.039825 0.01143938655941662
174.128159 0.0038205131336529214
END IONS

BEGIN IONS
CHARGE=1+
PRECURSORTYPE=M+H
FORMULA=C15H10O4
ONTOLOGY=
INCHIKEY=UWQJWDYDYIJWKY-UHFFFAOYSA-N
INCHI=InChI=1S/C15H10O4/c16-10-6-7-11-12(8-10)19-15(14(18)13(11)17)9-4-2-1-3-5-9/h1-8,16,18H
SMILES=O=c1c(O)c(-c2ccccc2)oc2cc(O)ccc12
IONMODE=positive
INSTRUMENTTYPE=LC-ESI-Orbitrap
INSTRUMENT=Orbitrap
COMMENT=DB#=CCMSLIB00010119873; origin=GNPS
NUM_PEAKS=46
COMPOUND_NAME="3,7-dihydroxyflavone "
PRECURSOR_MZ=255.065
COLLISION_ENERGY=205060
PARENT_MASS=254.05772354800925
51.39782 0.0011515260840511935
52.860519 0.0011895321173671688
53.038971 0.007362392632955883
53.20018 0.0012349124556549006
53.537521 0.0011776197785666393
65.039146 0.001869102683225952
68.672943 0.0011674092024518998
68.997337 0.007582487273651382
72.216553 0.0012212983541685812
81.033684 0.0017891198369938248
82.44062 0.0014408257406354835
82.446022 0.001475428248579879
89.038628 0.010570782549898518
91.054367 0.01678618713263198
104.343071 0.0016915521096752017
105.033417 0.08078097293176272
108.941299 0.0012780237770282459
121.028313 0.04194561393357907
124.557327 0.001329076657601944
127.7463 0.0015400952306398967
128.0616 0.005564196728304511
129.069733 0.00684505677647574
131.048889 0.00646953447714476
131.084747 0.0028005341265816466
133.02832 0.0018759097339691119
137.023163 0.08616932084920227
138.277222 0.0016473062798446631
143.084488 0.001563919908240956
149.023178 0.04325824021855171
152.062027 0.006033883229582535
153.069656 0.02447872172663111
155.033417 0.0021833615258684946
157.063995 0.0024760647078243643
165.069962 0.007720897305428963
167.033463 0.003454010997924984
171.079849 0.007126982128088274
181.064392 0.06395848152850056
184.052124 0.00173579793950574
186.63092 0.0015792357724130654
197.058823 0.001825991361852607
199.074936 0.027366045750188046
209.059555 0.00733743344689763
226.061905 0.012779670516053863
227.068832 0.002946318463330985
237.053726 0.006492791900517223
255.064636 1.0
END IONS

BEGIN IONS
CHARGE=1+
PRECURSORTYPE=M+H
FORMULA=C15H10O4
ONTOLOGY=
INCHIKEY=UWQJWDYDYIJWKY-UHFFFAOYSA-N
INCHI=InChI=1S/C15H10O4/c16-10-6-7-11-12(8-10)19-15(14(18)13(11)17)9-4-2-1-3-5-9/h1-8,16,18H
SMILES=O=c1c(O)c(-c2ccccc2)oc2cc(O)ccc12
IONMODE=positive
INSTRUMENTTYPE=LC-ESI-Orbitrap
INSTRUMENT=Orbitrap
COMMENT=DB#=CCMSLIB00010119874; origin=GNPS
NUM_PEAKS=71
COMPOUND_NAME="3,7-dihydroxyflavone "
PRECURSOR_MZ=255.065
COLLISION_ENERGY=205060
PARENT_MASS=254.05772354800925
55.93491 0.1693632004898993
56.93531 0.015824304294273606
56.943069 0.019143650445710945
56.965248 0.029164318072691594
58.933201 0.11941991468514923
68.715309 0.013541818890350237
69.737534 0.013381766560197073
72.937477 0.10582938421605673
83.085327 0.01446733888645331
90.947853 0.039365914420714944
91.054192 0.016492348802738983
95.049477 0.018155501276939243
95.150391 0.014112440241331079
98.984169 0.06372866258881164
103.054497 0.11450004523218026
107.012756 0.02083463810776393
124.60836 0.01889313375503643
131.049301 0.27819182619708704
137.02298 0.02449496531039714
149.959335 0.01771013827129566
151.039261 0.12241219737931706
157.965561 0.019554219466538625
163.039047 1.0
164.042587 0.3242381857024558
165.043854 0.0612930836516983
184.052475 0.01742482759580524
187.504791 0.015121465800992325
192.043533 0.01765446789559021
194.948502 0.018044160525528347
199.038513 0.021384383067855228
199.07576 0.018788751800588713
208.876053 0.06884337835674968
212.046188 0.028684161082232103
213.01947 0.06113303132154513
213.09137 0.034237281058850544
213.521484 0.39614343472300506
214.022583 0.12713722051731696
214.518677 0.5349853517323925
215.013031 0.1317439441069428
216.509415 0.01756400353506886
221.040375 0.020674585777610766
223.051224 0.02306145313598185
223.519516 0.11252374689463686
224.020126 0.3651767882368496
224.52005 0.08381175062455203
226.522369 0.12337947015719922
227.024002 0.027055802592847747
227.067032 0.0207720089350953
232.052368 0.06441758348816656
232.525986 0.016311420081696275
234.034073 0.09551644711662248
234.533157 0.017779726240927468
235.029358 0.09611490365545604
235.52803 0.36198270043074954
236.028824 0.08673444534908804
236.527145 0.02250474937892737
238.973007 0.01799544894678608
240.041565 0.14359477533524004
240.078354 0.021620982164603383
243.040009 0.18513879320543064
243.538605 0.02090422607739574
244.036224 0.031892166482258545
247.034927 0.10372782753317607
255.06488 0.7212027584671162
255.10051 0.22250057410074947
255.194214 0.030291643180726916
256.983368 0.023047535542055488
271.06369 0.021057319610585722
271.094757 0.019359373151569558
287.049988 0.02159314697675066
339.085724 0.12000445363005643
END IONS

BEGIN IONS
CHARGE=1+
PRECURSORTYPE=M+H
FORMULA=C15H14N4O3
ONTOLOGY=
INCHIKEY=DJTACERQBDYDTP-UHFFFAOYSA-N
INCHI=InChI=1S/C15H14N4O3/c1-7-12-13(8-3-4-10(20)11(5-8)21-2)9(6-16)14(17)22-15(12)19-18-7/h3-5,13,20H,17H2,1-2H3,(H,18,19)
SMILES=COc1cc(C2C(C#N)=C(N)Oc3n[nH]c(C)c32)ccc1O
IONMODE=positive
INSTRUMENTTYPE=LC-ESI-Orbitrap
INSTRUMENT=Orbitrap
COMMENT=DB#=CCMSLIB00010124226; origin=GNPS
NUM_PEAKS=132
COMPOUND_NAME="6-amino-4-(4-hydroxy-3-methoxyphenyl)-3-methyl-4H-pyrano[2,3-c]pyrazole-5-carb onitrile "
PRECURSOR_MZ=299.114
COLLISION_ENERGY=205060
PARENT_MASS=298.1067235480092
54.034271 0.0008742935451083066
57.04512 0.014707016496141936
65.038834 0.003021095761468398
68.428848 0.0008315305303207077
79.029266 0.005085090983875625
80.049454 0.0008283171245852235
82.028923 0.001895662198879164
82.387367 0.0008404291923574335
83.023987 0.001080940252405605
84.044403 0.00873922767523443
91.054489 0.0011397702958706253
92.049362 0.00359332916744118
95.049026 0.0013684164732031623
99.055283 0.00707987439044165
103.028938 0.001105164387950025
103.054039 0.0034398272473076604
104.042168 0.0009237305564234497
104.049469 0.001348641668677105
105.044777 0.007112997188022796
106.040176 0.0015221655783932576
107.024002 0.0031249134852301985
109.039551 0.004435983025307795
111.055206 0.033866577416382236
115.0541 0.0036956637808635263
116.061653 0.0012430936495192745
117.033478 0.0028552345885060927
117.069778 0.003304369836304168
118.064362 0.0012581719379703932
118.647652 0.0007059605215802442
119.060379 0.0012475429805376373
119.38076 0.0007225219203708172
120.045174 0.00120700463125922
120.055344 0.015366011856972794
121.03936 0.0008525412601296436
121.052162 0.0010196383583748274
121.064438 0.0010900860994989064
123.043961 0.017268100867322927
124.050308 0.007719094946746451
125.059799 0.0018457308174508694
128.049072 0.0009571005390611714
130.040237 0.00409758668285564
130.064957 0.013380621482556644
131.023987 0.0012492732759336674
131.04866 0.0016301854481168454
132.044113 0.0064895964753388415
132.054993 0.0016007704263843352
133.063675 0.005471688412360043
133.075424 0.0016413087756627525
134.035263 0.006854194433788022
135.031326 0.0014986829980185646
135.043304 0.0008446313383192207
137.059387 0.0011981059692224942
143.048645 0.0010290313905247047
144.05661 0.00522326743050145
145.028229 0.010401547180706119
145.051926 0.0017300482109734346
145.064407 0.0017955522509659992
145.075684 0.008594871602194212
146.036102 0.0055903372395163875
146.05986 0.004062486404821888
147.043549 0.0016146127895525753
147.055038 0.007724780203047693
147.067368 0.009682733036183937
148.062836 0.001403516751236914
148.075027 0.0010292785755812803
149.047333 0.0014850878199069001
149.059326 0.0054543854583997435
150.054596 0.008940436311287063
150.065842 0.007740600046668539
151.038498 0.0013684164732031623
156.044571 0.0010270539100720988
158.034103 0.0012168920335222486
158.046631 0.0027692141888177434
158.059875 0.017106194655265833
159.043015 0.0011145574200999023
160.038574 0.001738452502897009
161.058792 0.011352468093352898
161.07164 0.002686160009808303
162.055511 0.0008987648657093025
162.077621 0.005939362539401298
162.09166 0.0012638571942716345
164.070068 0.001353090999695468
167.205887 0.0007388361341048144
172.06218 0.006645817431094694
173.046692 0.007979133626264104
173.070908 0.035839361352913025
174.054367 0.008467324113001143
175.061478 0.20987543850629037
176.066452 0.0027415294624812633
176.082718 0.014358979936483328
177.054733 0.03157195853618987
186.038864 0.01183349021344924
186.055496 0.007763835441986656
188.070267 0.02041402508236206
189.065491 0.0039752300798506605
189.102127 0.0013689108433163138
190.071991 0.04591289396354317
191.059143 0.0016168374550617568
191.081604 0.006638649064453998
192.065094 0.009225193496462288
200.057632 0.011514621490466568
200.073898 0.003305358576530471
201.042908 0.006903631445103165
201.065384 0.12186421037228047
202.050232 0.0011644888015281969
203.045166 0.004849523624958967
203.082214 0.009692373253390391
204.05188 0.00627330955083509
205.096756 0.012087596451609076
206.080322 0.0012725086712517847
216.064941 0.07038594485993506
216.901505 0.0009111241185380882
217.06041 0.05185423398339707
217.095764 0.010262134808797415
218.068207 0.11278658635459389
219.076019 0.01728169604543459
229.08371 0.005928486396911966
233.091644 1.0
234.099701 0.01768905701867137
239.067139 0.0016971725984488643
240.077606 0.0010361997571654005
241.058777 0.0012537226069520304
242.395615 0.0009976388883395889
244.071762 0.005626426257776442
256.392303 0.0007383417639916629
257.078857 0.016673373621201755
259.094788 0.00319634996658058
267.06073 0.002505467733451455
267.088318 0.0032334277250669376
272.102112 0.027717354763948158
282.086639 0.0034025023037647273
299.113068 0.36690345347186243
END IONS

BEGIN IONS
CHARGE=1+
PRECURSORTYPE=M+H
FORMULA=C25H25NO
ONTOLOGY=
INCHIKEY=GQWPXPNJPMISIK-UHFFFAOYSA-N
INCHI=InChI=1S/C25H25NO/c1-17-8-7-10-19(14-17)24(27)15-23-21-13-12-18-9-5-6-11-20(18)22(21)16-25(2,3)26(23)4/h5-15H,16H2,1-4H3/b23-15-
SMILES=Cc1cccc(C(=O)C=C2c3ccc4ccccc4c3CC(C)(C)N2C)c1
IONMODE=positive
INSTRUMENTTYPE=LC-ESI-Orbitrap
INSTRUMENT=Orbitrap
COMMENT=DB#=CCMSLIB00010114980; origin=GNPS
NUM_PEAKS=37
COMPOUND_NAME="1-(3-methylphenyl)-2-(2,2,3-trimethyl(1,2,3-trihydrobenzo[f]isoquinolin-4-ylid ene))ethan-1-one "
PRECURSOR_MZ=356.201
COLLISION_ENERGY=205060
PARENT_MASS=355.19372354800925
55.01833 0.001024497163243027
55.272091 0.00017394184200023212
58.06543 0.0014797086721826092
63.023361 0.00040982717153675516
65.038918 0.016631897169092982
66.127617 0.00017955591284320136
67.054604 0.006694803068773783
76.030678 0.00021418387921916295
77.038696 0.0002778257411281169
78.04641 0.001735832962993366
81.033798 0.000249661032781456
91.054283 0.14288433032626716
95.049004 0.0012641094809862272
98.084167 0.00032566328595812373
99.091393 0.0003273616603307867
104.281143 0.00026706937010125144
105.069267 0.001926947256983857
106.041229 0.02142112419173892
107.048889 0.004833196048071543
109.064659 0.025520386625490523
118.714996 0.0010775241853228374
119.049011 1.0
119.384483 0.0010948381685108183
124.051628 0.017718479351070023
132.080276 0.0008092282115079961
193.085968 0.0003386841561485398
194.093903 0.0015368400989963552
207.10376 0.0018055134893384549
208.111038 0.00036727345808836644
222.127472 0.006147030156524069
236.142548 0.0013256283749293522
313.107178 0.0014636212927082184
326.18927 0.00033906157267579826
354.466705 0.0004036941529688056
356.199951 0.5043702003232573
357.940369 0.0004034582676392691
668.938477 0.0002902804865276453
END IONS

BEGIN IONS
CHARGE=1+
PRECURSORTYPE=M+H
FORMULA=C25H20FN3O3
ONTOLOGY=
INCHIKEY=AJWDAMKOZTXGIF-UHFFFAOYSA-N
INCHI=InChI=1S/C25H20FN3O3/c26-18-10-12-19(13-11-18)28-23(30)16-29-22-9-5-4-8-20(22)21(14-24(29)31)25(32)27-15-17-6-2-1-3-7-17/h1-14H,15-16H2,(H,27,32)(H,28,30)
SMILES=O=C(Cn1c(=O)cc(C(O)=NCc2ccccc2)c2ccccc21)Nc1ccc(F)cc1
IONMODE=positive
INSTRUMENTTYPE=LC-ESI-Orbitrap
INSTRUMENT=Orbitrap
COMMENT=DB#=CCMSLIB00010122177; origin=GNPS
NUM_PEAKS=45
COMPOUND_NAME=N-(4-fluorophenyl)-2-{2-oxo-4-[N-benzylcarbamoyl]hydroquinolyl}acetamide
PRECURSOR_MZ=430.156
COLLISION_ENERGY=205060
PARENT_MASS=429.14872354800923
65.039047 0.017772647701415616
66.74929 0.0010420467610642538
66.757851 0.0008873080447055486
67.254013 0.001055638675339005
79.856613 0.0009939522951689806
82.029091 0.010967977798479309
82.405762 0.0015784046089832794
82.510643 0.0010835195251333663
83.139069 0.0010120748475353155
84.11866 0.0010444863354212605
91.054451 1.0
92.385223 0.001459910997357244
104.292503 0.001202710158004261
104.778511 0.0012400007946042192
128.04982 0.00851620556968766
130.065033 0.006760409053887758
132.080154 0.001343856960088215
146.060257 0.004375550864602578
156.044373 0.001897291828506287
158.061203 0.0015275220581085702
166.257675 0.001321552280252726
168.027802 0.001159494840823001
180.08078 0.040476023688964025
183.056335 0.001247319517675239
192.080734 0.002429119038333729
199.050186 0.004976034667048634
204.080612 0.014777198901633922
205.088837 0.002042272247436966
206.059967 0.007922343469067766
216.080673 0.0024113449965898234
217.088379 0.02365550700802585
218.09642 0.14029190552713453
220.111145 0.0013922999366059179
232.075378 0.014248856798030776
233.082306 0.001237212709624783
233.106979 0.030353184149876297
235.086487 0.00510149849112326
261.101868 0.0164441252087143
279.112549 0.0065283009793497
291.11264 0.07247034435986091
319.107483 0.5907007607638377
332.137756 0.011887697331070802
426.718994 0.001373480362994724
430.10788 0.002052727566109851
430.606323 0.0047407899969087106
END IONS

BEGIN IONS
CHARGE=1+
PRECURSORTYPE=M+H
FORMULA=C19H19NO4
ONTOLOGY=
INCHIKEY=JBZRVLDDCKRMOY-UHFFFAOYSA-N
INCHI=InChI=1S/C19H19NO4/c1-13(21)20-16-8-6-15(7-9-16)17(22)10-4-14-5-11-18(23-2)19(12-14)24-3/h4-12H,1-3H3,(H,20,21)/b10-4+
SMILES=COc1ccc(C=CC(=O)c2ccc(N=C(C)O)cc2)cc1OC
IONMODE=positive
INSTRUMENTTYPE=LC-ESI-Orbitrap
INSTRUMENT=Orbitrap
COMMENT=DB#=CCMSLIB00010121668; origin=GNPS
NUM_PEAKS=165
COMPOUND_NAME="N-{4-[(2E)-3-(3,4-dimethoxyphenyl)prop-2-enoyl]phenyl}acetamide "
PRECURSOR_MZ=326.139
COLLISION_ENERGY=205060
PARENT_MASS=325.13172354800923
50.096039 0.0005085817811800788
52.369389 0.0004417827888905911
55.018299 0.0005985650833533581
60.31889 0.0004087995856028766
61.793369 0.00042641197570796686
62.260799 0.00042045578559969996
65.03891 0.012491411558134208
65.042473 0.0008324576239489566
66.225601 0.00041987938010535155
68.049828 0.006844687155277492
77.038979 0.0008441138239457799
78.034103 0.0006436528020223891
78.046638 0.0007577170448484463
79.018211 0.0024584334784508886
79.054459 0.016464062270238364
81.033623 0.004544252827332995
82.414146 0.000641090999825285
89.038803 0.0019331359379347057
90.046333 0.0006796461228917008
91.054298 0.020794852929497665
91.060593 0.0007960159876951516
92.049538 0.02502842319537687
92.061821 0.0033448810837038126
93.057228 0.004592863024023044
94.065369 0.004449274010875363
95.049019 0.0021691419653429153
96.044296 0.0007416417360616185
102.046188 0.0032163426584641175
103.054199 0.03020435239946079
104.061974 0.0008634554305339154
105.033546 0.00967983364681253
105.069801 0.029766988719360205
106.041656 0.00044754684383407515
106.06501 0.016163242647243423
107.049072 0.006182461287326099
108.044029 0.001986229288469687
108.056839 0.001005059046978841
109.028313 0.00253234147183734
109.064537 0.0004865502822849841
110.059937 0.008627381259187264
111.044037 0.002163506000509286
114.467949 0.0004891761295370157
115.054176 0.00243089410483202
117.033287 0.001965670825837927
117.057152 0.0021361587620552006
117.069069 0.0005560391668814311
118.041298 0.008490709111971763
118.064934 0.026628652937797904
118.074181 0.0011118861985980795
119.049088 0.030038155481923668
120.044327 0.7159670982620222
121.028267 0.13247335341444683
121.064346 0.002112334001622133
122.036346 0.0008433452832866487
122.060097 0.0007403608349630665
123.044037 0.0006904056921195377
124.051804 0.010121104075263699
130.04129 0.003234787634283267
130.06488 0.0030087085903888356
131.049164 0.005184767421663932
132.056808 0.04470037417682891
132.080872 0.002427883987250423
133.028214 0.022175856448901524
133.039032 0.001054309694218166
133.064636 0.027365427249685027
133.074844 0.001179005416162205
134.036682 0.0006012549756603174
135.044174 0.0009623409953421312
135.080139 0.007516519781468025
136.07518 0.004679836208614726
137.05954 0.0026057371047843707
139.075226 0.02332328765298442
139.087158 0.0009045723557974352
145.028519 0.0007234529404621799
145.052353 0.0028400779607644622
146.05986 0.43075461470238774
147.043808 0.06257105798844217
148.051636 0.1354958957367
148.074371 0.0031632493079291365
149.059357 0.003136478474969399
151.038269 0.0008972071744807611
151.075546 0.0021302025719469337
152.047165 0.0006227741141159913
159.04425 0.0032928764991026005
159.091019 0.0046599822415871696
160.051636 0.04426211386595934
160.075241 0.001685345620419818
161.059723 0.008043930808796819
162.054718 0.10276137939726943
163.075119 0.3554778504020236
165.054108 0.002879593759654792
165.069397 0.002302675904866963
167.070694 0.0025598168004012808
170.060318 0.0006318685119157105
175.039154 0.0068643489871402655
176.04657 0.06712562206961852
177.055023 0.0005651335646811504
179.085526 0.0007324192481520439
180.080597 0.002588316849844063
181.064178 0.0011155367667289526
181.088074 0.0009216083404081771
182.095932 0.003999037274734329
188.070374 0.26176533277042
191.069931 0.5688185250065197
191.756058 0.0005972201371998785
193.065582 0.0006054179042306114
193.088608 0.0008842700733853857
194.095947 0.002795502602534852
195.080505 0.000861277898666377
195.10318 0.0010635321821277407
198.090836 0.002600997770719728
201.101685 0.003550849980350977
205.088272 0.0005172919086502325
206.094513 0.001748878314907998
207.079742 0.0005123604394208073
208.075531 0.0022652735927892443
209.083649 0.00293704217392485
210.068375 0.0006444213426815204
210.090698 0.0030616738508139614
222.090881 0.014652804071830883
223.074615 0.0029542702937003745
223.098846 0.008725370193226492
224.083435 0.0009219285656828151
224.106293 0.003710898572615052
225.113342 0.0009032914546988832
226.08548 0.0035092847397029643
227.094254 0.0006669652020160359
229.096191 0.0023560894806765823
233.082581 0.0022269746499425386
234.090973 0.0021801577147904623
235.075089 0.0007576529997935187
235.099808 0.0005143458361235629
237.076004 0.0015267700644190781
238.058914 0.0004540153943817628
238.085098 0.0011747784425369834
239.069366 0.0008300879569166354
240.101273 0.0036074658089069764
241.109222 0.002307799509261171
242.117828 0.0010552703700420802
250.085358 0.0048657590030695514
251.068008 0.0006660045261921219
251.093735 0.011342315182623193
252.076767 0.0008927880656907567
252.102112 0.0036793243605357444
253.109879 0.0020761485455880386
254.079407 0.0046036866383058084
256.134827 0.0005767257196230462
264.101593 0.002407645749893301
266.117157 0.012216786362604657
267.100555 0.0022372859037858824
268.095428 0.008505055204275545
269.10437 0.0021265520038160606
280.096954 0.0010639804975122338
283.118469 0.001865568404986087
284.127441 0.05561768637495254
285.110352 0.004786215044849471
292.096802 0.0009135386634872994
293.103058 0.0009246825030447019
294.111908 0.003473547599053363
296.091553 0.0009886635129173753
308.128082 0.0038831797703702984
310.106506 0.0026209798278571395
311.112793 0.002900024132176697
326.137878 1.0
327.667114 0.0007581013151780119
END IONS

BEGIN IONS
CHARGE=1+
PRECURSORTYPE=M+H
FORMULA=C23H18O5
ONTOLOGY=
INCHIKEY=BYLCNWQEOASNRQ-UHFFFAOYSA-N
INCHI=InChI=1S/C23H18O5/c1-26-18-11-8-15(12-20(18)27-2)22-21(14-6-4-3-5-7-14)17-10-9-16(24)13-19(17)28-23(22)25/h3-13,24H,1-2H3
SMILES=COc1ccc(-c2c(-c3ccccc3)c3ccc(O)cc3oc2=O)cc1OC
IONMODE=positive
INSTRUMENTTYPE=LC-ESI-Orbitrap
INSTRUMENT=Orbitrap
COMMENT=DB#=CCMSLIB00010119509; origin=GNPS
NUM_PEAKS=218
COMPOUND_NAME="3-(3,4-Dimethoxyphenyl)-7-hydroxy-4-phenylcoumarin "
PRECURSOR_MZ=375.123
COLLISION_ENERGY=205060
PARENT_MASS=374.1157235480092
53.039108 0.0007510285473092527
55.018311 0.0052689517471986675
65.039017 0.0018831549431463806
68.997353 0.003886866058640514
75.044373 0.001557176033063214
78.057022 0.0003886998102640895
79.054703 0.001977151407988949
81.033791 0.0007644781719194776
91.054337 0.041317227939182494
95.012497 0.00036993069878137725
95.049263 0.0017343413547171171
105.033386 0.0077658660675440526
107.049057 0.05235246572930014
111.044006 0.0004963345340031409
115.054176 0.001372389886244471
121.028252 0.0045616109005868636
121.064453 0.0005831251691106376
122.035843 0.0006856479036920861
123.043617 0.004508566939290998
127.171272 0.00034201282441513186
129.070053 0.00048522397454252037
131.04924 0.0007057751820358589
135.043991 0.00045434454188201785
137.023178 0.012965985163687025
137.059662 0.0020274035818481904
138.067108 0.000484790115684126
141.069717 0.000866887725929171
149.022324 0.0030178090384193716
151.039368 0.0006620120276239067
152.061462 0.00407676419461686
153.069672 0.025194693219533035
154.077332 0.0007216581889388174
155.049362 0.0004983340574374801
155.085876 0.0008061474857539615
157.06398 0.0005018615185905126
161.024368 0.00043368908753672143
163.038773 0.001713893398086705
165.05452 0.007171951017259434
165.069916 0.016823971313101375
166.07724 0.0006326793961107232
167.085251 0.00338709838062747
168.056091 0.0007328630655425673
169.065109 0.0014807414202713043
170.072449 0.0015478574993220485
171.080338 0.0007354473552643075
177.070175 0.000545115360429567
178.078293 0.0018060978372098182
179.085831 0.000756819619897386
180.057251 0.000872603344802801
181.06459 0.06447821719170631
182.07251 0.012502133453777582
183.080124 0.006723605045680433
185.095139 0.0005944620897147684
191.085861 0.0006665392504941087
193.064484 0.00910162317539714
194.072342 0.004861407371737362
195.07991 0.005865281316347394
196.051865 0.0018050226217781453
197.059387 0.016267311534352794
198.067596 0.006567302676086711
199.035065 0.0004592867601819883
199.074829 0.00821404226826542
202.07695 0.003789568493788424
203.085129 0.0031146916078416934
205.064606 0.0005399656444147123
205.100937 0.0007780221136728317
207.079956 0.002283644396301621
208.989334 0.0007698731125064682
209.059479 0.008738238086348929
209.095581 0.0006838558779726312
210.067062 0.010746155746426626
210.087875 0.0006289255738141808
211.0755 0.0070323616454282065
212.048309 0.0006494867110163479
213.054764 0.0010482407287380109
213.090729 0.03477135411801474
215.085144 0.008071830879855201
216.09314 0.002056000539644966
217.100571 0.0039047863158350638
218.073212 0.0008793187253936006
219.080551 0.0030460475910722563
221.059738 0.004088987696366406
222.067383 0.0015525733564785088
223.038208 0.001499001219181119
223.075974 0.0036624289848502523
224.082352 0.001511601989503181
225.054016 0.004775012868631009
225.09079 0.015083329573223227
225.114822 0.0007494440193046819
226.060089 0.002432307077301878
226.082855 0.0036884982432111653
227.069794 0.00905961431984739
227.08905 0.003028221651020836
228.093323 0.004958214487445181
229.101349 0.006596088268169745
230.072571 0.0006668033384948705
231.080383 0.010528603824084796
232.087387 0.0008005073205948349
233.095551 0.00519604459555979
234.067795 0.0023331986233017066
237.05426 0.009589940752234297
237.091904 0.0005368531786914485
238.062073 0.0009080100003335055
238.100494 0.00046879392820941244
239.086853 0.01403788063192184
240.093414 0.0031457030845025765
241.085037 0.007974514451574485
241.103897 0.0045643649611662365
242.072556 0.0015081688454932779
243.080475 0.006623195015105079
244.087875 0.018891025821921086
245.095657 0.023511886751821715
246.103378 0.002045531336757624
247.075089 0.008149623659508172
247.108383 0.0008743010533791267
248.083328 0.0005755609342316752
249.055023 0.005983630467545924
249.085327 0.0007543485107474007
250.078537 0.0007437661272883037
251.067245 0.0014424109333035944
251.088776 0.0014895506414395723
252.093185 0.0030979974735078236
253.049591 0.00076632678792481
253.082855 0.0016237450726838086
253.104126 0.0007626861462000226
255.080795 0.04781132164877232
256.087952 0.013134228083600905
257.095642 0.04519762384180435
258.068024 0.0032124796218380553
258.103699 0.006303346719325311
259.075531 0.0033227552255847247
259.111572 0.00408887451579465
260.082947 0.0025807433971586245
261.05896 0.0009315892861158073
261.090393 0.02472721973132743
262.062683 0.0015885270514393627
262.098877 0.0019184861449625817
263.10556 0.001973340995406529
265.048798 0.006368123733226451
266.068542 0.0004663794093453047
267.079071 0.003950096271394335
268.087769 0.012274810275407567
269.095459 0.02880834137795686
270.068787 0.0004967118025756578
270.103912 0.002517362276975797
271.075073 0.07647581052002851
272.082367 0.02068235359451687
272.111725 0.0007020024963106906
273.090515 0.06468775215688216
274.061737 0.003222911097868146
274.09845 0.0021485256570547184
275.070007 0.005045438981411072
275.106293 0.01676453264950135
276.079407 0.0005522080095928834
276.113068 0.0015608355382166273
277.121521 0.0030763233940167317
279.092255 0.003382269342899255
281.095734 0.0021788580502850718
282.067261 0.0007497081073054437
282.103424 0.0007886422239891805
283.078156 0.017221367163961977
284.082703 0.033572205960269996
285.090546 0.05535329768195626
286.062195 0.0015763978668329466
286.097565 0.013749854940233867
287.070038 0.01010849640515868
287.106415 0.024369305036580715
288.077423 0.0030787567763094653
288.114349 0.007449035920344419
289.085266 0.05150014057027012
290.09259 0.0035708093120145404
291.101776 0.00044678030700305544
295.07547 0.0004785274573803466
296.082886 0.0017510732159082387
297.090363 0.02273882571987748
298.063782 0.0006443369950014932
298.097046 0.0037409385747910044
299.070374 0.047816301593929536
299.105957 0.007907700187381754
300.077545 0.02435591200225637
300.114319 0.007148484912048887
301.085297 0.07548016103029935
302.057587 0.0007297128729620518
302.093262 0.004598828445265649
303.064728 0.0010210396646595475
303.100464 0.018788955809626657
304.109406 0.006133707905693119
305.119507 0.0005987818148700861
311.070801 0.0009320420084028275
312.077942 0.0009305329341127601
313.042603 0.0007593095924759971
313.085114 0.0398417494154978
314.093109 0.06963417700143619
315.064117 0.004529561935351559
315.101227 0.014693460230384335
316.108795 0.09837261051290568
317.0802 0.032682908481133324
319.132233 0.06514283237248059
325.08493 0.004573042138334124
327.064331 0.013757626672827714
327.101135 0.0016530777041969921
328.072021 0.017294029091028718
329.079956 0.010179460623649095
331.096069 0.0199516786866949
332.103577 0.1069059351740921
341.080048 0.011437406088420586
342.088776 0.0017168926832382139
343.095734 0.03368693333317237
344.06366 0.004161008266859868
344.104095 0.0016816369351365162
345.074402 0.005200779316144877
347.127686 0.0075300920731496595
359.090576 0.023818889052707286
360.098602 0.015748680427713907
365.754425 0.0004186926617791775
373.241821 0.0006450349418606493
375.122009 1.0
377.018311 0.0006013661045918263
END IONS

BEGIN IONS
CHARGE=1+
PRECURSORTYPE=M+H
FORMULA=C21H30O2
ONTOLOGY=
INCHIKEY=RJKFOVLPORLFTN-UHFFFAOYSA-N
INCHI=InChI=1S/C21H30O2/c1-13(22)17-6-7-18-16-5-4-14-12-15(23)8-10-20(14,2)19(16)9-11-21(17,18)3/h12,16-19H,4-11H2,1-3H3/t16-,17+,18-,19-,20-,21+/m0/s1
SMILES=CC(=O)C1CCC2C3CCC4=CC(=O)CCC4(C)C3CCC12C
IONMODE=positive
INSTRUMENTTYPE=LC-ESI-Orbitrap
INSTRUMENT=Orbitrap
COMMENT=DB#=CCMSLIB00010116666; origin=GNPS
NUM_PEAKS=95
COMPOUND_NAME=progesterone
PRECURSOR_MZ=315.232
COLLISION_ENERGY=205060
PARENT_MASS=314.22472354800925
53.039021 0.0030803990948783276
55.018429 0.007227984912054024
55.05468 0.0018576415561152658
59.294621 0.001425823495458156
59.454769 0.001578001801907463
66.732437 0.0015692782047224709
67.054588 0.025505374947476674
69.033661 0.0017209718668837228
69.070213 0.02136651272748597
70.914597 0.0013923830395823529
71.049622 0.009333279699365456
79.049278 0.002485255909146643
79.050697 0.002142612397491675
79.054459 0.08730091418452056
81.070084 0.09125076513216977
82.386261 0.0017820370471786674
83.049278 0.04440165573874571
85.064934 0.025206834066034724
91.05426 0.021822078358257783
92.364311 0.0018120849930380848
93.069923 0.03497387040320951
95.049088 0.0026107787797529187
95.085564 0.04621567930893602
97.064812 1.0
100.814529 0.001442786045540085
104.271881 0.0016584527537246126
105.069878 0.03320298017465611
107.049271 0.005424623516200932
107.085327 0.029344726997449316
109.064774 0.9050116581183492
109.10144 0.014240303115923522
111.080513 0.0025729765252846194
117.069733 0.007895824740993977
119.085487 0.03324369029485274
121.065071 0.009471403321461163
121.101051 0.024927678956114974
123.080292 0.09440579944740858
123.116722 0.0024542386747111156
125.095596 0.0015775171576194078
129.070084 0.0035786134229989887
131.085449 0.023309451678298936
133.100952 0.025864011720637462
135.116898 0.009185463191508644
137.096024 0.01005636897714369
143.085678 0.00854864059700422
144.09375 0.001809177127309754
145.101181 0.03424641932683878
145.977448 0.0015387456145749985
147.116638 0.020572665383651687
149.096191 0.00663478030347456
149.132889 0.00632315402625512
151.112122 0.0031327406779882803
155.085663 0.006500533835683293
157.101242 0.014783104718545253
159.116776 0.027965913997932506
161.06575 0.0014927044072097623
161.132278 0.013781344975135324
163.111816 0.012672963488353272
163.14798 0.0018964130991596753
169.10112 0.0033096358431283983
171.116714 0.017948316563833226
173.132568 0.018251219243867675
175.148163 0.0028448619708835404
177.127243 0.011503516821276273
181.101593 0.0026199870212259657
183.116669 0.008361083257526889
185.132126 0.00868967208482826
187.110413 0.00191579887068188
187.148102 0.00997010229386988
189.127747 0.006480663419873033
189.16275 0.002319992206919848
197.132462 0.006309099341901521
199.14772 0.006389550293718671
201.163712 0.007256094280761221
209.133041 0.0024537540304230606
211.147293 0.0032703796557959335
213.16272 0.009969617649581824
215.143402 0.002995101700180627
215.179825 0.006485994507041639
223.148071 0.006422021461018364
227.17894 0.0050451470386537745
229.158112 0.00272079303314143
233.190521 0.0032490553071215086
237.161484 0.0018590954889794312
239.179581 0.008531193402634236
241.15889 0.0022802513752993286
245.190216 0.0024469690103902887
253.194321 0.0029592380228645482
255.181564 0.0017229104440359432
255.210648 0.012811571754737034
269.192078 0.0017049786053779038
273.220276 0.007547365497882347
279.210602 0.015881793319566205
297.220642 0.06525153765516492
315.231354 0.8238618492378241
END IONS

BEGIN IONS
CHARGE=1+
PRECURSORTYPE=M+H
FORMULA=C11H12N2
ONTOLOGY=
INCHIKEY=WUFQLZTXIWKION-UHFFFAOYSA-N
INCHI=InChI=1S/C11H12N2/c1-2-5-10-9(4-1)8-13-7-3-6-11(13)12-10/h1-2,4-5H,3,6-8H2
SMILES=c1ccc2c(c1)CN1CCCC1=N2
IONMODE=positive
INSTRUMENTTYPE=LC-ESI-Orbitrap
INSTRUMENT=Orbitrap
COMMENT=DB#=CCMSLIB00010115895; origin=GNPS
NUM_PEAKS=27
COMPOUND_NAME=Deoxypeganine
PRECURSOR_MZ=173.107
COLLISION_ENERGY=205060
PARENT_MASS=172.09972354800925
68.04969 0.0014706678260567475
70.065453 0.00039346587299061774
72.998596 0.00014621406743242226
83.425079 0.0001604363687697644
90.903503 0.0003110174591218179
91.054626 0.0002014214239141183
103.05452 0.00031404523201719137
104.050537 0.0002436789890482985
106.065048 0.004803271379360251
117.057472 0.0007527608483523327
118.065147 0.0016361653141042302
120.080383 0.0002431561921119188
129.069275 0.0003850766506625844
130.065018 0.003126372397574692
131.060394 0.0009324606157268281
131.071243 0.00025092473211973964
131.930756 0.0002622304939524274
132.081116 0.001941807975786502
144.068192 0.004368181971562552
144.080811 0.003299589482938079
145.07608 0.0010184373527492374
146.097183 0.00022085389727274235
156.080658 0.0013114527999170786
171.09137 0.0032940478354124545
172.099869 0.0032634720009715925
172.522079 0.00035192242622485403
173.107346 1.0
END IONS

BEGIN IONS
CHARGE=1+
PRECURSORTYPE=M+H
FORMULA=C14H15NO4
ONTOLOGY=
INCHIKEY=SXNFVFUSWREOIQ-UHFFFAOYSA-N
INCHI=InChI=1S/C14H15NO4/c1-3-9-12(16)10-7-8(14(18)19-4-2)5-6-11(10)15-13(9)17/h5-7H,3-4H2,1-2H3,(H2,15,16,17)
SMILES=CCOC(=O)c1ccc2nc(O)c(CC)c(O)c2c1
IONMODE=positive
INSTRUMENTTYPE=LC-ESI-Orbitrap
INSTRUMENT=Orbitrap
COMMENT=DB#=CCMSLIB00010116917; origin=GNPS
NUM_PEAKS=38
COMPOUND_NAME=ethyl 3-ethyl-4-hydroxy-2-oxohydroquinoline-6-carboxylate
PRECURSOR_MZ=262.107
COLLISION_ENERGY=205060
PARENT_MASS=261.09972354800925
56.044048 0.0006703278993615046
62.80175 0.0006201842790519912
69.033867 0.012433622070776846
83.83445 0.0007346913522961038
84.960007 0.0008140230500992145
97.028587 0.002903839504491222
101.949966 0.004910582199862991
104.049507 0.003801934196601909
112.936661 0.0010320604836838647
118.641022 0.0007873296800837024
119.960571 0.0011957132942462566
120.044823 0.0012812817607445804
130.065125 0.005211942863215688
134.817841 0.0006775625510479518
136.19754 0.000983164217113394
144.080994 0.008573561189935552
146.060547 0.0012992436545867941
148.039398 0.003550218212063108
154.065079 0.019537301614624573
164.034271 0.03422638871633829
170.059479 0.005622072772612902
172.075699 0.09410859860805301
174.055283 0.005619578065134817
188.070953 0.003992280377179813
189.07991 0.004495462875509606
190.086456 0.004542113905349801
192.065979 0.0018081639801161835
197.975281 0.0030283254076476753
198.054993 0.048769036489088397
200.035278 0.0029422579996537346
206.044769 0.0027351972789726596
216.065552 0.209176731563987
218.04454 0.029156145237877844
219.052765 0.011581928937758544
232.060654 0.010777635246823862
234.07608 1.0
244.097061 0.004788341533436814
262.10733 0.7678874268239929
END IONS

BEGIN IONS
CHARGE=1+
PRECURSORTYPE=M+H
FORMULA=C10H13N5
ONTOLOGY=
INCHIKEY=HYVABZIGRDEKCD-UHFFFAOYSA-N
INCHI=InChI=1S/C10H13N5/c1-7(2)3-4-11-9-8-10(13-5-12-8)15-6-14-9/h3,5-6H,4H2,1-2H3,(H2,11,12,13,14,15)
SMILES=CC(C)=CCNc1nc[nH]c2ncnc1-2
IONMODE=positive
INSTRUMENTTYPE=LC-ESI-Orbitrap
INSTRUMENT=Orbitrap
COMMENT=DB#=CCMSLIB00010114981; origin=GNPS
NUM_PEAKS=17
COMPOUND_NAME=Isopentenyladenine
PRECURSOR_MZ=204.124
COLLISION_ENERGY=205060
PARENT_MASS=203.11672354800925
53.002918 0.002914961025423701
58.754871 0.001791220501326169
59.948601 0.0015550687696134356
67.124702 0.0017221119706303206
69.070503 0.24049462778283176
91.874496 0.002300558020151372
94.040314 0.0029417162564102004
104.022034 0.0017765745962644351
104.262627 0.0019252749227759304
109.83551 0.001987370001455012
118.626587 0.002227320922964682
119.035133 0.020378327825246387
121.050659 0.002253453366983971
136.061737 1.0
137.045547 0.022230157424190055
148.061569 0.19024511622953913
204.124161 0.2153574465543533
END IONS

BEGIN IONS
CHARGE=1+
PRECURSORTYPE=M+H
FORMULA=C10H13N5
ONTOLOGY=
INCHIKEY=HYVABZIGRDEKCD-UHFFFAOYSA-N
INCHI=InChI=1S/C10H13N5/c1-7(2)3-4-11-9-8-10(13-5-12-8)15-6-14-9/h3,5-6H,4H2,1-2H3,(H2,11,12,13,14,15)
SMILES=CC(C)=CCNc1nc[nH]c2ncnc1-2
IONMODE=positive
INSTRUMENTTYPE=LC-ESI-Orbitrap
INSTRUMENT=Orbitrap
COMMENT=DB#=CCMSLIB00010114982; origin=GNPS
NUM_PEAKS=28
COMPOUND_NAME=Isopentenyladenine
PRECURSOR_MZ=204.124
COLLISION_ENERGY=205060
PARENT_MASS=203.11672354800925
53.002781 0.002050521696466192
55.162609 0.00038946300161908117
56.965271 0.0003491806708189693
57.26059 0.0003587141557749958
57.690121 0.00038949657022808125
61.229839 0.0003614835660175035
67.054703 0.0038593494081317135
69.070236 0.23298781499775628
72.337601 0.0004025547591291175
76.615883 0.00041366596870814833
84.959862 0.033184701603263624
94.039963 0.0046206686759493265
96.080978 0.0004968321975058792
102.970306 0.002642252351615335
104.288383 0.00046915487938530237
109.051086 0.0007311075197175296
119.035156 0.022429436769765262
121.050941 0.002682182212020946
132.518524 0.0004582450814602721
134.978439 0.0006073736269431861
136.061752 1.0
137.045731 0.015552487608483673
148.061661 0.21239491682638612
162.077164 0.0004580940227197717
162.973358 0.004986902200140344
174.994568 0.00042095035686116856
180.984283 0.007252397268643133
204.124237 0.2974441263930637
END IONS

BEGIN IONS
CHARGE=1+
PRECURSORTYPE=M+H
FORMULA=C18H25NO5
ONTOLOGY=
INCHIKEY=HKODIGSRFALUTA-UHFFFAOYSA-N
INCHI=InChI=1S/C18H25NO5/c1-4-12-9-11(2)18(3,22)17(21)23-10-13-5-7-19-8-6-14(15(13)19)24-16(12)20/h4-5,11,14-15,22H,6-10H2,1-3H3/b12-4-/t11-,14-,15-,18-/m1/s1
SMILES=CC=C1CC(C)C(C)(O)C(=O)OCC2=CCN3CCC(OC1=O)C23
IONMODE=positive
INSTRUMENTTYPE=LC-ESI-Orbitrap
INSTRUMENT=Orbitrap
COMMENT=DB#=CCMSLIB00010119120; origin=GNPS
NUM_PEAKS=71
COMPOUND_NAME=SENECIONINE
PRECURSOR_MZ=336.181
COLLISION_ENERGY=205060
PARENT_MASS=335.1737235480092
53.038929 0.014665663710820327
53.95853 0.001190411441085409
55.017891 0.001460819557228517
55.05463 0.003046837559122913
56.049919 0.0020847593470388003
58.74947 0.00131509677737151
59.04953 0.005684214631182827
61.39999 0.0014413214387969456
64.343193 0.0013525536890953182
65.038834 0.008068116163632314
67.041939 0.001612186529263084
67.054626 0.04894130348000365
68.049843 0.028695586139095473
69.033638 0.00187746356160841
69.070213 0.001989321188400056
70.065376 0.0014854487594578702
75.917084 0.001482370109179201
79.054443 0.028217882237521974
80.049667 0.043835875101210627
81.05751 0.007751015184929391
81.070122 0.031155427711752132
82.065422 0.017898246503422945
83.049263 0.006667330286837847
83.085876 0.0013192016444097355
85.064819 0.0022315083436553634
86.060226 0.001392063034338239
91.054283 0.05585287335561592
92.04921 0.00761504146428817
92.384079 0.0015388120309548024
93.057877 0.00405868728404551
93.069931 0.057385014977633604
94.065147 0.1566843141742085
95.049103 0.007532944123523659
95.072929 0.0031586951859145593
95.084969 0.0020190814744271914
96.04425 0.0030642832440353714
96.080757 0.057727258266945664
101.059776 0.0016983887370658206
103.054047 0.03230376426569573
105.057114 0.002277688097835401
105.069809 0.010531549494947421
106.064857 0.0029580698094212854
107.072647 0.00646465247682546
107.085327 0.029792098746681473
108.080711 0.03390517551898347
109.064629 0.00970544500350453
109.088463 0.001805628388439463
109.101044 0.007953179886561999
110.059792 0.009428366478424306
110.09642 0.019975309224765075
111.080482 0.0022520326788464913
118.064957 0.029662282326597587
119.072617 0.003548657554545986
120.080643 0.25731872137496625
121.08815 0.007699191238571794
122.096268 0.028811035524545565
125.0961 0.0283066499872236
135.080322 0.010707545669211341
136.076187 0.0020298567504025335
136.213409 0.0016855610275713657
137.096298 0.00263583774692058
138.091217 0.14910672962164415
140.106735 0.006877704722546906
153.090683 0.033904149302223914
156.101532 0.006012603994240872
174.27536 0.0013130443438523973
220.132751 0.012617848167125557
290.174042 0.003207953590373266
294.917572 0.002898549237367015
308.184814 0.06990947741963953
336.179688 1.0
END IONS

BEGIN IONS
CHARGE=1+
PRECURSORTYPE=M+H
FORMULA=C24H23N5OS
ONTOLOGY=
INCHIKEY=FQLVCNZBDVLHNO-UHFFFAOYSA-N
INCHI=InChI=1S/C24H23N5OS/c1-14-17(18-8-4-5-9-19(18)26-14)12-13-25-15(2)22-16(3)28-29(23(22)30)24-27-20-10-6-7-11-21(20)31-24/h4-11,25-26H,12-13H2,1-3H3/b22-15+
SMILES=CC1=NN(c2nc3ccccc3s2)C(=O)C1=C(C)NCCc1c(C)[nH]c2ccccc12
IONMODE=positive
INSTRUMENTTYPE=LC-ESI-Orbitrap
INSTRUMENT=Orbitrap
COMMENT=DB#=CCMSLIB00010115344; origin=GNPS
NUM_PEAKS=74
COMPOUND_NAME="1-benzothiazol-2-yl-3-methyl-4-({[2-(2-methylindol-3-yl)ethyl]amino}ethylidene )-1,2-diazolin-5-one "
PRECURSOR_MZ=430.17
COLLISION_ENERGY=205060
PARENT_MASS=429.16272354800924
55.01823 0.0006228935031317441
57.003979 0.00042119688553248435
65.039093 0.0005105665250378473
66.732407 0.00046769720910211626
67.018227 0.0006515901763674111
68.049744 0.0033774227459202407
78.034142 0.0005302442438280191
80.04969 0.0026641054397765172
91.05423 0.004493430511591406
92.359581 0.0004954568481096798
96.044296 0.0006306240355135973
106.028481 0.0007745759188059841
108.044472 0.003267204094839577
109.01088 0.0009960673844739284
114.876427 0.0004922943575898308
115.054138 0.007089718099108939
116.062111 0.0018395153190455134
117.057243 0.010555924838141979
117.069771 0.016772678424494075
118.065201 0.0021128950550946845
124.021309 0.001957347373229518
129.069717 0.0010474871377411034
130.054825 0.000910680140438005
130.065155 0.01676775899479653
131.07338 0.0023925997721835532
131.085358 0.014692696696661523
132.080521 0.00094570179471337
136.021561 0.0057009162437811674
141.069809 0.011552226481172932
142.065353 0.0029655962026687906
143.072968 0.2692679127269746
148.022079 0.0005045929318336881
149.017075 0.004258469178894476
150.000931 0.0008618372312981145
151.032166 0.0008756584861626398
152.016907 0.0008528182768526192
156.080597 0.00296676749545392
157.088531 0.007106936103050339
158.096436 1.0
159.09169 0.0018054306989982519
160.021286 0.004029832827237243
160.075516 0.0006563924767864412
161.016495 0.004497412907060846
163.03212 0.0010286293239005222
167.073547 0.0009534323270952231
169.075989 0.00199225189822637
174.037262 0.0008022184285350349
175.032791 0.01152575526422901
176.026657 0.0006691595681443502
177.011581 0.003019475670784737
179.02771 0.0006380031800599116
186.036789 0.00189140358942674
187.032379 0.04949309376491568
188.040009 0.0022447826227002397
189.335037 0.0005261447190800666
190.042877 0.0028427275895087306
199.047165 0.0006013417158853656
200.053146 0.003791006228349385
201.047974 0.03955315180247319
211.032135 0.009323373440350452
213.049759 0.005727855977839141
214.041336 0.0005615177611909705
215.027374 0.008329531512168267
223.072617 0.0035116528990960546
224.082184 0.0020547989329522728
228.058823 0.026219974641511202
229.042862 0.0018611842355704049
232.05365 0.002161386576399036
241.031525 0.003734315657549128
256.053711 0.46499187415630316
258.071442 0.0008139313563863275
273.080078 0.08094921567306876
370.295715 0.0004755448707624823
430.16922 0.7592009440619848
END IONS

BEGIN IONS
CHARGE=1+
PRECURSORTYPE=M+H
FORMULA=C7H11NO5
ONTOLOGY=
INCHIKEY=RFMMMVDNIPUKGG-UHFFFAOYSA-N
INCHI=InChI=1S/C7H11NO5/c1-4(9)8-5(7(12)13)2-3-6(10)11/h5H,2-3H2,1H3,(H,8,9)(H,10,11)(H,12,13)/t5-/m0/s1
SMILES=CC(O)=NC(CCC(=O)O)C(=O)O
IONMODE=positive
INSTRUMENTTYPE=LC-ESI-Orbitrap
INSTRUMENT=Orbitrap
COMMENT=DB#=CCMSLIB00010125373; origin=GNPS
NUM_PEAKS=23
COMPOUND_NAME=N-Acetyl-L-glutamic acid
PRECURSOR_MZ=190.071
COLLISION_ENERGY=205060
PARENT_MASS=189.06372354800925
53.343159 0.002273106099843149
56.050259 0.025555223122479036
60.530159 0.0029508839769418808
60.824379 0.0025617795323700718
64.075172 0.0022420829076408018
69.082207 0.0026206710158728323
77.539574 0.002986113703680139
82.511131 0.0029703391991704716
84.045036 1.0
85.029121 0.011133645282923625
92.366531 0.0025717700518928617
102.055428 0.24722329284368572
126.055313 0.003202750232279579
127.161758 0.0024439965653645515
130.050079 0.9553034672886729
132.64212 0.00218897540912492
136.197495 0.0029461516255889805
144.065903 0.029082928147657776
148.06041 0.12686066853401745
152.130875 0.00247922629210281
167.94458 0.002270477015758204
172.06041 0.025745042993412043
190.071609 0.009528852357473408
END IONS

BEGIN IONS
CHARGE=1+
PRECURSORTYPE=M+H
FORMULA=C15H12O3
ONTOLOGY=
INCHIKEY=JVSPTYZZNUXJHN-UHFFFAOYSA-N
INCHI=InChI=1S/C15H12O3/c16-11-5-3-4-10(8-11)15-9-13(17)12-6-1-2-7-14(12)18-15/h1-8,15-16H,9H2
SMILES=O=C1CC(c2cccc(O)c2)Oc2ccccc21
IONMODE=positive
INSTRUMENTTYPE=LC-ESI-Orbitrap
INSTRUMENT=Orbitrap
COMMENT=DB#=CCMSLIB00010121143; origin=GNPS
NUM_PEAKS=76
COMPOUND_NAME=3'-Hydroxyflavanone
PRECURSOR_MZ=241.086
COLLISION_ENERGY=205060
PARENT_MASS=240.07872354800926
55.01844 0.002423602575414883
56.965309 0.006129238020611306
65.039009 0.03693095342262494
65.042778 0.0013734565252495673
71.95224 0.007785722567386415
73.086632 0.0011636374845394191
79.021446 0.005181024092059768
84.95993 0.768254694394539
91.054367 0.08968345347429156
91.06089 0.002302755214738754
92.370712 0.0014480666348843946
93.033546 0.023372229836968152
95.049232 0.039979809733711964
98.036201 0.0060378143651432774
102.970207 0.11539416731089402
103.054398 0.00526719351445492
105.033569 0.0014613773586690116
107.049271 0.012954837064480999
111.044052 0.013332791563523152
119.049187 0.16446555167170432
120.015167 0.0012063719135321372
120.980957 0.026202159770018715
121.028442 1.0
121.064377 0.012543255473772445
123.043907 0.006847316540570911
125.986557 0.011790849297736722
129.033524 0.0021258627012852903
134.978363 0.01474022546264398
138.992004 0.001501309530022863
139.039124 0.006719463535797616
141.01178 0.0017395014293265368
143.086349 0.0012130272754244456
143.996887 0.0024425178144772334
145.017273 0.0013219650411353907
147.044037 0.6096262453845941
147.949966 0.002571071383660246
152.061935 0.01956501255236281
152.988907 0.01474232715587313
153.069855 0.02495375399190358
153.96286 0.0012301911034625045
162.973541 0.12256759658418805
163.027756 0.0014855468308042374
165.069809 0.014906959792156551
165.961349 0.002133568909792174
166.077225 0.007828807278583991
167.085495 0.119721553669714
169.064255 0.0021703485413023
171.080185 0.01514410084484565
176.061691 0.008003247816603446
177.069809 0.06070916033502391
178.077454 0.010187957928304939
179.085159 0.005121476117233849
180.984131 0.4680071499603656
181.064545 0.03542193768409519
183.080399 0.001961230065001869
184.712646 0.0013016486732536068
185.096878 0.0014109367211694102
194.072754 0.00967164195834374
195.080414 0.2122780217882537
197.03952 0.0011576826870568274
197.059937 0.0051572049021294
198.067673 0.014031954844420408
198.994736 0.06096311493354621
199.075211 0.0562062825915699
204.000366 0.03882002535342599
205.064102 0.013554870481403343
206.448288 0.0010252760136203732
213.091278 0.005820989680335962
221.012833 0.0023962805634359322
222.011215 0.0020708683951225306
223.075165 0.25900952102061026
226.06221 0.14865626491983266
240.990875 0.009742398963725125
241.085709 0.5002576325616733
247.922653 0.0011412194234284852
322.062836 0.0011608352269005524
END IONS

BEGIN IONS
CHARGE=1+
PRECURSORTYPE=M+H
FORMULA=C15H12O3
ONTOLOGY=
INCHIKEY=JVSPTYZZNUXJHN-UHFFFAOYSA-N
INCHI=InChI=1S/C15H12O3/c16-11-5-3-4-10(8-11)15-9-13(17)12-6-1-2-7-14(12)18-15/h1-8,15-16H,9H2
SMILES=O=C1CC(c2cccc(O)c2)Oc2ccccc21
IONMODE=positive
INSTRUMENTTYPE=LC-ESI-Orbitrap
INSTRUMENT=Orbitrap
COMMENT=DB#=CCMSLIB00010121144; origin=GNPS
NUM_PEAKS=74
COMPOUND_NAME=3'-Hydroxyflavanone
PRECURSOR_MZ=241.086
COLLISION_ENERGY=205060
PARENT_MASS=240.07872354800926
51.02322 0.0007771295496426921
54.196548 0.000714658638331636
55.01828 0.002785644485128059
56.965248 0.001505527494929337
65.03894 0.03800335239089702
71.952179 0.0010272278715580889
77.038727 0.0008443233477195327
78.404137 0.0007569499425525228
79.021523 0.007256286162285259
84.959839 0.14419187972610692
91.054283 0.09077302493168989
93.033409 0.021204044165002208
93.069794 0.0011790042780767031
95.049103 0.04263500157143323
95.641739 0.0008681524582196263
98.036263 0.004517226514801527
102.970078 0.013900529135059105
103.05407 0.004293318746769116
104.264664 0.0010089803545084678
105.033493 0.00110408211983767
107.049103 0.011927865203659464
111.010193 0.0008990658988683964
111.043869 0.011236606322485578
119.049072 0.1586379022826141
120.684372 0.0008000999534580977
121.02832 1.0
121.064529 0.013324336949633418
121.373444 0.0010323801116662173
123.043922 0.006038425406726421
125.98613 0.0027504375110558484
129.033142 0.0016229556340604289
134.978485 0.0033461652735581886
136.187775 0.000878671615107055
139.039032 0.0068380960068421745
141.01149 0.0049437890604203194
143.085403 0.001341943871496262
147.043915 0.6235002687751923
150.014557 0.0008675084282061102
152.061981 0.01925499466743149
153.069733 0.026836730663213522
153.424545 0.0007704745728363597
162.973511 0.029989686932716895
165.06955 0.017140429456387146
166.077393 0.008025687351765759
167.085388 0.11938083813207252
169.065201 0.0015836698032359502
170.072342 0.001222154288982278
171.080322 0.014193777467880076
176.061813 0.0063851282306692245
177.069763 0.06028936697860618
178.077271 0.013551464867733409
179.085678 0.006040572173438142
180.983932 0.07399947790633571
181.046524 0.0013320687446223493
181.064453 0.03665196274586919
183.080017 0.0015008046081635526
185.095779 0.0013999065727127058
188.03273 0.0010364589684184855
194.072693 0.007923071902945536
195.080246 0.20945337308572812
197.038223 0.0012620841498202726
197.059448 0.0044586197835715675
198.066925 0.009446846914924494
198.994537 0.006882748754445954
199.075134 0.05982910019561338
203.001495 0.0016145832438847203
204.00029 0.007973306243999787
205.062927 0.011602844723505035
213.091263 0.00659572604508897
221.011749 0.003426454348576522
223.075027 0.2602347102981258
226.062119 0.14153890542376316
241.085571 0.5005738307420428
338.43158 0.0009327701362424026
END IONS

BEGIN IONS
CHARGE=1+
PRECURSORTYPE=M+H
FORMULA=C14H14O4
ONTOLOGY=
INCHIKEY=WKPUJZVCZXWKCK-UHFFFAOYSA-N
INCHI=InChI=1S/C14H14O4/c1-3-4-13(15)17-10-5-6-11-9(2)7-14(16)18-12(11)8-10/h5-8H,3-4H2,1-2H3
SMILES=CCCC(=O)Oc1ccc2c(C)cc(=O)oc2c1
IONMODE=positive
INSTRUMENTTYPE=LC-ESI-Orbitrap
INSTRUMENT=Orbitrap
COMMENT=DB#=CCMSLIB00010120156; origin=GNPS
NUM_PEAKS=32
COMPOUND_NAME=17695-46-4
PRECURSOR_MZ=247.097
COLLISION_ENERGY=205060
PARENT_MASS=246.08972354800926
53.03907 0.00032492834524225074
55.01828 0.002310551596410063
59.292961 0.00023700655770611233
68.997437 0.005736428170260654
71.04966 0.0020826895042447935
71.053383 0.00031316046745608387
77.038933 0.00048315758095306767
79.054489 0.0150640078858273
81.070122 0.0056640219922897165
89.902138 0.00027343451059832314
91.054352 0.004390242915231629
92.366493 0.0002918733509511706
93.069946 0.007664861034480407
95.049187 0.0005468690211966463
103.0541 0.013936015574973636
104.272713 0.0003378954971977085
105.069847 0.08277690134988051
107.048981 0.0024283802835428927
109.064522 0.0005030205593819481
115.05407 0.00573815212687901
121.06469 0.0476036890572903
131.048813 0.0032030364422692276
132.056961 0.0009028285855692988
133.064606 0.01679073782569944
135.04364 0.0004873550405455858
149.059586 0.008121934402251398
176.046631 0.00042506773837804014
176.431015 0.00026998659736161184
176.447571 0.0003799450477584704
177.054459 1.0
177.665192 0.0004191463221671664
247.096008 0.04505995358958874
END IONS

BEGIN IONS
CHARGE=1+
PRECURSORTYPE=M+H
FORMULA=C7H7NO3
ONTOLOGY=
INCHIKEY=WJXSWCUQABXPFS-UHFFFAOYSA-N
INCHI=InChI=1S/C7H7NO3/c8-6-4(7(10)11)2-1-3-5(6)9/h1-3,9H,8H2,(H,10,11)
SMILES=Nc1c(O)cccc1C(=O)O
IONMODE=positive
INSTRUMENTTYPE=LC-ESI-Orbitrap
INSTRUMENT=Orbitrap
COMMENT=DB#=CCMSLIB00010123815; origin=GNPS
NUM_PEAKS=16
COMPOUND_NAME=2-Amino-3-hydroxybenzoic acid
PRECURSOR_MZ=154.05
COLLISION_ENERGY=205060
PARENT_MASS=153.04272354800926
54.034611 0.0014410934437179706
55.935089 0.0018089276386476466
72.937798 0.001583695171440584
80.050034 0.08251231422492428
95.036858 0.010358812762505786
104.556427 0.001105322645130095
108.044647 0.1402807261070062
123.031487 0.02236192870580969
126.054657 0.004627260742451148
135.928299 0.0010367367046108802
135.945663 0.0015713187611213271
136.039322 1.0
141.926437 0.0010407711717002458
153.955063 0.0011475480450428533
154.049164 0.00972021425750335
172.371857 0.0011617141813641595
END IONS

