BEGIN IONS
CHARGE=1+
PRECURSORTYPE=M+Na
FORMULA=C24H20N2O3S
ONTOLOGY=
INCHIKEY=JSUSZTQAHMZNSZ-UHFFFAOYSA-N
INCHI=InChI=1S/C24H20N2O3S/c1-29-23-13-7-16(6-12-22(28)17-8-10-19(27)11-9-17)14-18(23)15-30-24-25-20-4-2-3-5-21(20)26-24/h2-14,27H,15H2,1H3,(H,25,26)/b12-6+
SMILES=COc1ccc(C=CC(=O)c2ccc(O)cc2)cc1CSc1nc2ccccc2[nH]1
IONMODE=positive
INSTRUMENTTYPE=LC-ESI-Orbitrap
INSTRUMENT=Orbitrap
COMMENT=DB#=CCMSLIB00010117132; origin=GNPS
NUM_PEAKS=62
COMPOUND_NAME=(2E)-3-[3-(benzimidazol-2-ylthiomethyl)-4-methoxyphenyl]-1-(4-hydroxyphenyl)pr op-2-en-1-one
PRECURSOR_MZ=439.109
COLLISION_ENERGY=205060
PARENT_MASS=438.1017235480092
55.018299 0.012205331137256801
57.060692 0.0010691491616356733
63.040089 0.0010922352143293993
63.06152 0.0009650726945737936
65.039101 0.0013359633771943104
68.153038 0.0009325251448744421
71.336304 0.0010600661245102729
91.054192 0.0025175151232568137
104.277786 0.0012776805556396578
107.048927 0.018191809522656123
115.054199 0.001773084538854205
117.069504 0.0014033292358743635
121.028343 0.05682499409602587
131.04892 0.004832932670473468
145.06456 0.009322223769702622
147.081146 0.0012451330059403062
153.069504 0.0012534591233052566
159.043533 0.0012996312286927087
165.069534 0.014738741575483065
166.078079 0.012981552351598312
167.085236 0.010701331573242583
172.005737 0.004077526749544334
173.059479 0.0016841464670013261
174.06749 0.001413547652640439
177.069595 0.002082664720878269
178.078094 0.0023521281555984814
179.08519 0.007256589743434478
181.064499 0.00872312177930642
181.101059 0.0051406205530964075
183.080582 0.00143701216521439
189.070023 0.0027347510945059735
190.077484 0.009108393937375487
191.085709 0.012389641098926384
194.072601 0.033430118140036214
195.080078 0.01471262784374754
196.087875 0.0047651883519131905
197.059998 0.0014941596071283674
205.064545 0.0015111903017384933
206.072937 0.0019854005316604396
207.080154 0.022705322054219677
208.088058 0.004124834234572461
209.09549 0.011399590052257741
211.07428 0.004961609029749975
213.46431 0.001241348407138056
219.080414 0.017307727242450482
221.097137 0.0014230091496460642
222.066498 0.0016436512598172492
223.075882 0.004257673652531442
224.083038 0.017386446897537287
234.067261 0.007779999757785676
235.075043 0.004661490344731536
236.082962 0.004900676989033747
237.090607 0.05784115887443004
239.106674 0.011090766789994126
249.090942 0.016119741678424154
252.07753 0.009265076327788644
267.101196 0.018758742423233197
278.948883 0.0013571571304869113
327.284546 0.001214856215522305
373.036835 0.0019100870154956614
409.892029 0.0011418134586388766
439.108002 1.0
END IONS

BEGIN IONS
CHARGE=1+
PRECURSORTYPE=M+Na
FORMULA=C18H16ClN3O3
ONTOLOGY=
INCHIKEY=LTVSSQLGIHDDKJ-UHFFFAOYSA-N
INCHI=InChI=1S/C18H16ClN3O3/c1-11-13(14-4-2-3-5-17(14)21-11)8-9-20-18(23)15-10-12(22(24)25)6-7-16(15)19/h2-7,10,21H,8-9H2,1H3,(H,20,23)
SMILES=Cc1[nH]c2ccccc2c1CCN=C(O)c1cc([N+](=O)[O-])ccc1Cl
IONMODE=positive
INSTRUMENTTYPE=LC-ESI-Orbitrap
INSTRUMENT=Orbitrap
COMMENT=DB#=CCMSLIB00010122107; origin=GNPS
NUM_PEAKS=13
COMPOUND_NAME=(2-chloro-5-nitrophenyl)-N-[2-(2-methylindol-3-yl)ethyl]carboxamide
PRECURSOR_MZ=380.077
COLLISION_ENERGY=205060
PARENT_MASS=379.0697235480092
53.559189 0.0017634792117669125
69.243027 0.0017587109038486603
79.043991 0.0018373879844998204
92.375954 0.002237131131646624
120.579842 0.0025184612988234994
143.072952 0.002998470962594214
144.080978 0.026410862841212166
145.084229 0.00454578688206703
157.088425 0.010077024067239499
158.096664 0.023702463943644957
159.100189 0.009684433381970075
379.569275 0.012026467287818244
380.076782 1.0
END IONS

BEGIN IONS
CHARGE=1+
PRECURSORTYPE=M+Na
FORMULA=C21H25NO5S
ONTOLOGY=
INCHIKEY=SKSXXESXTVWIKU-UHFFFAOYSA-N
INCHI=InChI=1S/C21H25NO5S/c1-12(2)27-21(24)18-14-7-5-6-8-17(14)28-20(18)22-19(23)13-9-10-15(25-3)16(11-13)26-4/h9-12H,5-8H2,1-4H3,(H,22,23)
SMILES=COc1ccc(C(O)=Nc2sc3c(c2C(=O)OC(C)C)CCCC3)cc1OC
IONMODE=positive
INSTRUMENTTYPE=LC-ESI-Orbitrap
INSTRUMENT=Orbitrap
COMMENT=DB#=CCMSLIB00010116741; origin=GNPS
NUM_PEAKS=21
COMPOUND_NAME="methylethyl 2-[(3,4-dimethoxyphenyl)carbonylamino]-4,5,6,7-tetrahydrobenzo[b]t hiophene-3-carboxylate "
PRECURSOR_MZ=426.135
COLLISION_ENERGY=205060
PARENT_MASS=425.1277235480092
51.586761 0.001006737836536627
59.209011 0.0011268968686393857
83.00238 0.0012750659453877199
104.275146 0.0015218790924096026
111.607391 0.001018510174141289
127.976089 0.0010858966583610795
134.688309 0.0012373132765175964
165.05481 0.01148574207539005
188.620758 0.0011707386776498518
199.97789 0.0010327181678020884
202.029221 0.008448073030711187
205.046799 0.009022075974607474
209.073471 0.0011346097794838195
220.040329 0.001594136888741667
262.61264 0.0010838669449809654
340.096985 0.00643703301369407
366.076477 0.013309236576084618
384.087036 0.1816723376858507
407.106323 0.00186246499759276
425.113831 0.00815620024665077
426.134064 1.0
END IONS

BEGIN IONS
CHARGE=1+
PRECURSORTYPE=M+Na
FORMULA=C22H30N2O2
ONTOLOGY=
INCHIKEY=XSUFLYSABLUBNS-UHFFFAOYSA-N
INCHI=InChI=1S/C22H30N2O2/c1-16-12-17(2)22-18(14-21(25)26-20(22)13-16)15-23-8-10-24(11-9-23)19-6-4-3-5-7-19/h12-14,19H,3-11,15H2,1-2H3
SMILES=Cc1cc(C)c2c(CN3CCN(C4CCCCC4)CC3)cc(=O)oc2c1
IONMODE=positive
INSTRUMENTTYPE=LC-ESI-Orbitrap
INSTRUMENT=Orbitrap
COMMENT=DB#=CCMSLIB00010115492; origin=GNPS
NUM_PEAKS=9
COMPOUND_NAME="4-[(4-cyclohexylpiperazinyl)methyl]-5,7-dimethylchromen-2-one "
PRECURSOR_MZ=377.22
COLLISION_ENERGY=205060
PARENT_MASS=376.21272354800925
50.204929 0.007236028370489433
68.617203 0.007555704272901641
69.904602 0.006647466195020226
75.390419 0.006402480924012739
104.294327 0.007737949413529162
146.965454 0.007929157429925249
172.832336 0.006521985934260294
377.219666 1.0
395.230591 0.05265689514032876
END IONS

BEGIN IONS
CHARGE=1+
PRECURSORTYPE=M+Na
FORMULA=C19H17NO3S
ONTOLOGY=
INCHIKEY=CWULQENCADQNSG-UHFFFAOYSA-N
INCHI=InChI=1S/C19H17NO3S/c1-22-16-9-8-14(11-17(16)23-2)15(21)12-24-18-7-3-5-13-6-4-10-20-19(13)18/h3-11H,12H2,1-2H3
SMILES=COc1ccc(C(=O)CSc2cccc3cccnc23)cc1OC
IONMODE=positive
INSTRUMENTTYPE=LC-ESI-Orbitrap
INSTRUMENT=Orbitrap
COMMENT=DB#=CCMSLIB00010115251; origin=GNPS
NUM_PEAKS=18
COMPOUND_NAME="1-(3,4-dimethoxyphenyl)-2-(8-quinolylthio)ethan-1-one "
PRECURSOR_MZ=362.082
COLLISION_ENERGY=205060
PARENT_MASS=361.0747235480092
52.725861 0.001019659435982028
53.41069 0.0007851265974757566
73.636467 0.0010498136580756915
75.721039 0.0009991843469060837
77.033882 0.0008603260155364976
93.468323 0.001123151704402256
100.567268 0.0009586064431010305
110.789749 0.0010929974823085924
118.679367 0.0010617264371744228
129.170868 0.0009932279573567182
142.340622 0.0012828573991946217
183.010971 0.0036010097569383562
222.366058 0.0008647933076985218
240.638626 0.0009537668765921708
281.643555 0.0010665660036832823
347.056824 0.00111161119965036
359.378387 0.0011644741569009798
362.081421 1.0
END IONS

BEGIN IONS
CHARGE=1+
PRECURSORTYPE=M+Na
FORMULA=C20H20ClN3O4
ONTOLOGY=
INCHIKEY=XEMKXRIEXQJZFH-UHFFFAOYSA-N
INCHI=InChI=1S/C20H20ClN3O4/c1-12-9-18(21)24(23-12)15-7-5-14(6-8-15)22-20(25)13-10-16(26-2)19(28-4)17(11-13)27-3/h5-11H,1-4H3,(H,22,25)
SMILES=COc1cc(C(=O)Nc2ccc(-n3nc(C)cc3Cl)cc2)cc(OC)c1OC
IONMODE=positive
INSTRUMENTTYPE=LC-ESI-Orbitrap
INSTRUMENT=Orbitrap
COMMENT=DB#=CCMSLIB00010117200; origin=GNPS
NUM_PEAKS=12
COMPOUND_NAME="N-[4-(5-chloro-3-methylpyrazolyl)phenyl](3,4,5-trimethoxyphenyl)carboxamide "
PRECURSOR_MZ=424.103
COLLISION_ENERGY=205060
PARENT_MASS=423.09572354800923
64.907257 0.011580770741812208
72.254341 0.009902139362120076
77.665421 0.010018214936247723
80.69532 0.010326261652201865
128.036682 0.010058394942676524
157.948715 0.011728097432051145
212.806351 0.010790563948712454
229.439117 0.011143255116254152
287.64566 0.010103039394264081
342.070312 0.013223686560234295
424.102692 1.0
442.11499 0.11803546555234115
END IONS

BEGIN IONS
CHARGE=1+
PRECURSORTYPE=M+Na
FORMULA=C20H15BrFN5O2S
ONTOLOGY=
INCHIKEY=VBTFCVBCINACBK-UHFFFAOYSA-N
INCHI=InChI=1S/C20H15BrFN5O2S/c1-11-2-5-13(6-3-11)27-18-17(19(29)24-10-23-18)26-20(27)30-9-16(28)25-15-7-4-12(21)8-14(15)22/h2-8,10H,9H2,1H3,(H,25,28)(H,23,24,29)
SMILES=Cc1ccc(-n2c(SCC(O)=Nc3ccc(Br)cc3F)nc3c(O)ncnc32)cc1
IONMODE=positive
INSTRUMENTTYPE=LC-ESI-Orbitrap
INSTRUMENT=Orbitrap
COMMENT=DB#=CCMSLIB00010125203; origin=GNPS
NUM_PEAKS=28
COMPOUND_NAME=N-(4-bromo-2-fluorophenyl)-2-[9-(4-methylphenyl)-6-oxohydropurin-8-ylthio]acet amide
PRECURSOR_MZ=510.001
COLLISION_ENERGY=205060
PARENT_MASS=508.9937235480092
73.947212 0.001243400392154994
80.50029 0.0010223595795165914
92.371323 0.0010608492732595968
114.702072 0.0010531513345109957
114.92157 0.0010975061244434116
212.080048 0.001985335060115403
230.03981 0.0011216996462247292
244.054794 0.0078053433225696595
245.056717 0.0025384869444791667
257.049316 0.0012302039257288207
271.064514 0.005978365859568336
272.066833 0.0017401007256956829
279.03006 0.03459380359918959
280.03833 0.008674110695626068
283.050934 0.0016535905569018802
301.062958 0.0020164933836216456
321.042877 0.002002930348683634
333.03479 0.0015315232424597774
347.047668 0.002080642873193321
351.043854 0.002412020807895006
373.027435 0.0014453796421778128
445.050507 0.0015142945224033845
446.053009 0.0013691333917154782
482.036713 0.004780419962881272
509.491425 0.02755605474040901
509.999176 1.0
510.488342 0.007217367429581272
920.688477 0.0012613622492350632
END IONS

BEGIN IONS
CHARGE=1+
PRECURSORTYPE=M+Na
FORMULA=C22H23NO5
ONTOLOGY=
INCHIKEY=HZDFZQGZGNKKNH-UHFFFAOYSA-N
INCHI=InChI=1S/C22H23NO5/c1-3-26-19-10-9-15(13-20(19)27-4-2)11-12-23-21(24)17-14-16-7-5-6-8-18(16)28-22(17)25/h5-10,13-14H,3-4,11-12H2,1-2H3,(H,23,24)
SMILES=CCOc1ccc(CCN=C(O)c2cc3ccccc3oc2=O)cc1OCC
IONMODE=positive
INSTRUMENTTYPE=LC-ESI-Orbitrap
INSTRUMENT=Orbitrap
COMMENT=DB#=CCMSLIB00010117411; origin=GNPS
NUM_PEAKS=17
COMPOUND_NAME="N-[2-(3,4-diethoxyphenyl)ethyl](2-oxochromen-3-yl)carboxamide "
PRECURSOR_MZ=404.147
COLLISION_ENERGY=205060
PARENT_MASS=403.1397235480092
57.636391 0.0007472082354190987
59.538429 0.0008287435028443608
61.326321 0.0009007564032710521
70.012199 0.0008632620832141797
74.223267 0.0007171532645798598
82.393784 0.0011269126194871075
89.766457 0.0009930043335697062
118.649933 0.0008245774672824861
180.284576 0.0007850001294446764
180.972198 0.0007626820817917761
199.819153 0.0007763704843522216
206.346985 0.0009090884743948015
208.95343 0.0032950365554741856
224.030777 0.0010188932688470706
360.087677 0.0009751498954473861
375.106873 0.0011379228563292048
404.146149 1.0
END IONS

BEGIN IONS
CHARGE=1+
PRECURSORTYPE=M+Na
FORMULA=C22H21NO6
ONTOLOGY=
INCHIKEY=NOXAIIKFHLFPJK-UHFFFAOYSA-N
INCHI=InChI=1S/C22H21NO6/c1-13-16-5-4-15(26-2)10-19(16)29-22(25)17(13)6-8-21(24)23-11-14-3-7-18-20(9-14)28-12-27-18/h3-5,7,9-10H,6,8,11-12H2,1-2H3,(H,23,24)
SMILES=COc1ccc2c(C)c(CCC(O)=NCc3ccc4c(c3)OCO4)c(=O)oc2c1
IONMODE=positive
INSTRUMENTTYPE=LC-ESI-Orbitrap
INSTRUMENT=Orbitrap
COMMENT=DB#=CCMSLIB00010119661; origin=GNPS
NUM_PEAKS=9
COMPOUND_NAME="N-(2H-benzo[3,4-d]1,3-dioxolen-5-ylmethyl)-3-(7-methoxy-4-methyl-2-oxochromen- 3-yl)propanamide "
PRECURSOR_MZ=418.126
COLLISION_ENERGY=205060
PARENT_MASS=417.1187235480092
53.642632 0.00039545405128683003
82.386726 0.000560873697045567
97.993141 0.00045186376219658535
135.043961 0.0010256311074500965
136.193207 0.0005450496742449084
294.959503 0.000435893220666291
418.125702 1.0
439.321228 0.0005580898411824883
442.063385 0.0005425588558411011
END IONS

BEGIN IONS
CHARGE=1+
PRECURSORTYPE=M+Na
FORMULA=C17H14ClNO3
ONTOLOGY=
INCHIKEY=CRWHAWNMCHVQSU-UHFFFAOYSA-N
INCHI=InChI=1S/C17H14ClNO3/c18-14-5-1-13(2-6-14)10-19-17(20)8-4-12-3-7-15-16(9-12)22-11-21-15/h1-9H,10-11H2,(H,19,20)/b8-4+
SMILES=OC(C=Cc1ccc2c(c1)OCO2)=NCc1ccc(Cl)cc1
IONMODE=positive
INSTRUMENTTYPE=LC-ESI-Orbitrap
INSTRUMENT=Orbitrap
COMMENT=DB#=CCMSLIB00010117716; origin=GNPS
NUM_PEAKS=11
COMPOUND_NAME="(2E)-3-(2H-benzo[3,4-d]1,3-dioxolen-5-yl)-N-[(4-chlorophenyl)methyl]prop-2-ena mide "
PRECURSOR_MZ=338.055
COLLISION_ENERGY=205060
PARENT_MASS=337.04772354800923
50.842079 0.008609370075983053
60.549431 0.00789155782765503
63.61211 0.010360131657270913
64.269539 0.009484750866626982
84.673431 0.010368885465177353
104.304527 0.011099828425365034
109.711533 0.011979586119962183
130.070007 0.009734234391960504
130.175232 0.012741167407822402
158.00029 0.014833327497461395
338.054413 1.0
END IONS

BEGIN IONS
CHARGE=1+
PRECURSORTYPE=M+Na
FORMULA=C23H17F3N4O
ONTOLOGY=
INCHIKEY=HAABNOIHSDVBOG-UHFFFAOYSA-N
INCHI=InChI=1S/C23H17F3N4O/c24-23(25,26)20-12-18(16-7-2-1-3-8-16)27-21-13-19(28-30(20)21)22(31)29-11-10-15-6-4-5-9-17(15)14-29/h1-9,12-13H,10-11,14H2
SMILES=O=C(c1cc2nc(-c3ccccc3)cc(C(F)(F)F)n2n1)N1CCc2ccccc2C1
IONMODE=positive
INSTRUMENTTYPE=LC-ESI-Orbitrap
INSTRUMENT=Orbitrap
COMMENT=DB#=CCMSLIB00010118308; origin=GNPS
NUM_PEAKS=15
COMPOUND_NAME="5-phenyl-7-(trifluoromethyl)(8-hydropyrazolo[1,5-a]pyrimidin-2-yl) 2-1,2,3,4-t etrahydroisoquinolyl ketone "
PRECURSOR_MZ=445.125
COLLISION_ENERGY=205060
PARENT_MASS=444.1177235480092
53.093651 0.0002603628370162592
53.604809 0.00030874399063466024
56.390591 0.00031450246299515787
60.99725 0.00028689175303543056
72.677483 0.0002785702611850004
82.397614 0.00037524935350329817
88.031303 0.00033194430991365955
92.190193 0.0002752250214611275
99.077583 0.00028113328067493293
136.211197 0.0002754580232329395
210.378159 0.00039235834074778257
442.701172 0.0006476450677352794
444.114777 0.0007245356524332541
445.123718 1.0
447.567871 0.0012071322508071015
END IONS

BEGIN IONS
CHARGE=1+
PRECURSORTYPE=M+Na
FORMULA=C20H18O6
ONTOLOGY=
INCHIKEY=ACNCWTVOJNBNEN-UHFFFAOYSA-N
INCHI=InChI=1S/C20H18O6/c1-3-13-4-6-14(7-5-13)26-18-11-25-17-10-15(24-12-19(21)23-2)8-9-16(17)20(18)22/h4-11H,3,12H2,1-2H3
SMILES=CCc1ccc(Oc2coc3cc(OCC(=O)OC)ccc3c2=O)cc1
IONMODE=positive
INSTRUMENTTYPE=LC-ESI-Orbitrap
INSTRUMENT=Orbitrap
COMMENT=DB#=CCMSLIB00010121518; origin=GNPS
NUM_PEAKS=9
COMPOUND_NAME=methyl 2-[3-(4-ethylphenoxy)-4-oxochromen-7-yloxy]acetate
PRECURSOR_MZ=377.1
COLLISION_ENERGY=205060
PARENT_MASS=376.09272354800925
56.203239 0.0013140048231846731
56.403252 0.001508959259292381
70.153419 0.0012818105126347764
72.216431 0.001514921168653473
92.371834 0.0017170298959944912
143.835464 0.0015035935408673983
318.086182 0.0015816945534977032
377.09903 1.0
395.109894 0.002002009163454688
END IONS

BEGIN IONS
CHARGE=1+
PRECURSORTYPE=M+Na
FORMULA=C29H30N4O2
ONTOLOGY=
INCHIKEY=HXNGFYZLCLPCNU-UHFFFAOYSA-N
INCHI=InChI=1S/C29H30N4O2/c34-29(35-20-23-14-9-17-32-16-8-7-15-26(23)32)25-19-28-30-24(21-10-3-1-4-11-21)18-27(33(28)31-25)22-12-5-2-6-13-22/h1-6,10-13,18-19,23,26H,7-9,14-17,20H2
SMILES=O=C(OCC1CCCN2CCCCC12)c1cc2nc(-c3ccccc3)cc(-c3ccccc3)n2n1
IONMODE=positive
INSTRUMENTTYPE=LC-ESI-Orbitrap
INSTRUMENT=Orbitrap
COMMENT=DB#=CCMSLIB00010118917; origin=GNPS
NUM_PEAKS=15
COMPOUND_NAME="(6-azabicyclo[4.4.0]dec-2-yl)methyl 5,7-diphenyl-8-hydropyrazolo[1,5-a]pyrimid ine-2-carboxylate "
PRECURSOR_MZ=489.226
COLLISION_ENERGY=205060
PARENT_MASS=488.2187235480092
58.065571 0.008079963114595247
70.065567 0.002983922799819738
82.380608 0.0017731142654997087
84.080994 0.010118610642040915
98.096458 0.03483634415656165
104.26236 0.00166666955918586
110.096359 0.0030047489380115784
110.431908 0.0017389825390186377
124.112198 0.008159218140491972
152.143341 1.0
152.564301 0.0016180752367382335
254.333221 0.0015532828068080646
285.224792 0.0016684050707018467
338.089142 0.0023608741655805256
489.225739 0.07108770870249109
END IONS

BEGIN IONS
CHARGE=1+
PRECURSORTYPE=M+Na
FORMULA=C17H19NO5
ONTOLOGY=
INCHIKEY=VABYUUZNAVQNPG-UHFFFAOYSA-N
INCHI=InChI=1S/C17H19NO5/c1-21-13-10-12(11-14(22-2)17(13)23-3)7-8-16(20)18-9-5-4-6-15(18)19/h4,6-8,10-11H,5,9H2,1-3H3/b8-7+
SMILES=COc1cc(C=CC(=O)N2CCC=CC2=O)cc(OC)c1OC
IONMODE=positive
INSTRUMENTTYPE=LC-ESI-Orbitrap
INSTRUMENT=Orbitrap
COMMENT=DB#=CCMSLIB00010117595; origin=GNPS
NUM_PEAKS=10
COMPOUND_NAME=Piperlongumine
PRECURSOR_MZ=340.116
COLLISION_ENERGY=205060
PARENT_MASS=339.1087235480092
84.959267 0.0020659894327378766
90.074852 0.0017961329566983535
118.626999 0.002070751605844456
120.041397 0.003581154176148021
147.306442 0.0018580412070838912
152.180191 0.0022152041900773776
173.763138 0.001726287751135183
175.062241 0.0017953392611805904
239.731674 0.0024263271978024158
340.115051 1.0
END IONS

BEGIN IONS
CHARGE=1+
PRECURSORTYPE=M+Na
FORMULA=C22H20ClN3O3
ONTOLOGY=
INCHIKEY=SFZFYNRNHREGAY-UHFFFAOYSA-N
INCHI=InChI=1S/C22H20ClN3O3/c23-15-6-5-7-16(12-15)24-20(27)14-26-19-9-2-1-8-17(19)18(13-21(26)28)22(29)25-10-3-4-11-25/h1-2,5-9,12-13H,3-4,10-11,14H2,(H,24,27)
SMILES=O=C(c1cc(=O)n(CC(O)=Nc2cccc(Cl)c2)c2ccccc12)N1CCCC1
IONMODE=positive
INSTRUMENTTYPE=LC-ESI-Orbitrap
INSTRUMENT=Orbitrap
COMMENT=DB#=CCMSLIB00010125006; origin=GNPS
NUM_PEAKS=17
COMPOUND_NAME=N-(3-chlorophenyl)-2-[2-oxo-4-(pyrrolidinylcarbonyl)hydroquinolyl]acetamide
PRECURSOR_MZ=432.109
COLLISION_ENERGY=205060
PARENT_MASS=431.1017235480092
66.737663 0.0011359545654307571
69.07058 0.0012000919603775435
70.269653 0.0011314378474767582
82.393929 0.0012082220526947417
94.574387 0.0012511308732577324
114.170937 0.0011061442269343635
115.5364 0.0011964785860143442
139.045761 0.0011662165757225507
233.002579 0.0013785023195605052
297.33847 0.0012032536629453428
319.10434 0.0011982852731959438
359.863739 0.0013166232835907185
414.094788 0.001912830053518591
432.107666 1.0
432.15921 0.04795263950222155
473.135559 0.0027981067725024017
772.245667 0.0014290895606452944
END IONS

BEGIN IONS
CHARGE=1+
PRECURSORTYPE=M+Na
FORMULA=C15H15N5O2S
ONTOLOGY=
INCHIKEY=XLJQMEUZSPZIKG-UHFFFAOYSA-N
INCHI=InChI=1S/C15H15N5O2S/c1-22-11-4-2-10(3-5-11)6-16-12(21)7-23-15-13-14(18-8-17-13)19-9-20-15/h2-5,8-9H,6-7H2,1H3,(H,16,21)(H,17,18,19,20)
SMILES=COc1ccc(CN=C(O)CSc2ncnc3[nH]cnc23)cc1
IONMODE=positive
INSTRUMENTTYPE=LC-ESI-Orbitrap
INSTRUMENT=Orbitrap
COMMENT=DB#=CCMSLIB00010121556; origin=GNPS
NUM_PEAKS=10
COMPOUND_NAME=N-[(4-methoxyphenyl)methyl]-2-purin-6-ylthioacetamide
PRECURSOR_MZ=352.084
COLLISION_ENERGY=205060
PARENT_MASS=351.0767235480092
67.695534 0.0015668083639705883
73.957161 0.00225830078125
82.402046 0.001955997242647059
87.839111 0.001669491038602941
121.064453 0.003378475413602941
136.215118 0.0017685834099264706
189.019608 0.00269775390625
215.0 0.014105583639705882
274.278381 0.001899270450367647
352.083099 1.0
END IONS

BEGIN IONS
CHARGE=1+
PRECURSORTYPE=M+Na
FORMULA=C17H14N2O3
ONTOLOGY=
INCHIKEY=XBIGUQRVKDBRJP-UHFFFAOYSA-N
INCHI=InChI=1S/C17H14N2O3/c1-21-13-8-6-12(7-9-13)19-17(20)14-10-11-4-2-3-5-15(11)22-16(14)18/h2-10,18H,1H3,(H,19,20)
SMILES=COc1ccc(NC(=O)c2cc3ccccc3oc2=N)cc1
IONMODE=positive
INSTRUMENTTYPE=LC-ESI-Orbitrap
INSTRUMENT=Orbitrap
COMMENT=DB#=CCMSLIB00010115861; origin=GNPS
NUM_PEAKS=27
COMPOUND_NAME=(2-iminochromen-3-yl)-N-(4-methoxyphenyl)carboxamide
PRECURSOR_MZ=317.09
COLLISION_ENERGY=205060
PARENT_MASS=316.0827235480092
55.187038 0.0018520108249751258
59.95837 0.0014579659685974395
61.062691 0.0014621878777729147
79.054321 0.0015958816683296299
91.053886 0.003307865838984828
97.939468 0.001632471547850415
104.337799 0.00181893920310057
118.064796 0.009253721261112418
119.068459 0.009587955737504204
141.012955 0.0023093843189849403
163.298752 0.001697207488541035
164.070145 0.0016648395181957248
165.073746 0.0018921189621421404
176.620255 0.0018562327341506012
179.08345 0.002666135644312596
180.088181 0.00228053460628586
194.104126 0.00764376656219787
207.09935 0.013754980093698238
232.116318 0.0074185980728391915
233.117874 0.01476612734122455
261.359344 0.0019026737350808284
281.100006 0.003504888267173671
299.110657 0.007009776534347342
300.122528 0.004027701353403352
317.08902 1.0
358.114319 0.006795866469456598
423.06427 0.001867491158618535
END IONS

BEGIN IONS
CHARGE=1+
PRECURSORTYPE=M+Na
FORMULA=C27H44O6
ONTOLOGY=
INCHIKEY=UPEZCKBFRMILAV-UHFFFAOYSA-N
INCHI=InChI=1S/C27H44O6/c1-15(20(28)8-9-24(2,3)32)16-7-11-27(33)18-12-21(29)19-13-22(30)23(31)14-25(19,4)17(18)6-10-26(16,27)5/h12,15-17,19-20,22-23,28,30-33H,6-11,13-14H2,1-5H3/t15-,16+,17-,19-,20+,22+,23-,25+,26+,27+/m0/s1
SMILES=CC(C(O)CCC(C)(C)O)C1CCC2(O)C3=CC(=O)C4CC(O)C(O)CC4(C)C3CCC12C
IONMODE=positive
INSTRUMENTTYPE=LC-ESI-Orbitrap
INSTRUMENT=Orbitrap
COMMENT=DB#=CCMSLIB00010124105; origin=GNPS
NUM_PEAKS=12
COMPOUND_NAME=ECDYSONE
PRECURSOR_MZ=487.303
COLLISION_ENERGY=205060
PARENT_MASS=486.2957235480092
64.317688 0.0009496521425264573
69.07045 0.0010676059520980015
81.069977 0.0011111744763541577
89.297089 0.0009903869416277413
210.248611 0.0017933938073895759
321.178986 0.0011416370217690308
457.275177 0.0014947900191949457
457.781586 0.0015401296216728966
466.280945 0.0012337330893023688
466.779846 0.001306347296395962
487.302246 1.0
505.311707 0.01729422462018342
END IONS

BEGIN IONS
CHARGE=1+
PRECURSORTYPE=M+Na
FORMULA=C20H32O4
ONTOLOGY=
INCHIKEY=BGKHCLZFGPIKKU-UHFFFAOYSA-N
INCHI=InChI=1S/C20H32O4/c1-2-3-6-9-17(21)14-12-16-13-15-19(22)18(16)10-7-4-5-8-11-20(23)24/h12-18,21H,2-11H2,1H3,(H,23,24)/b14-12+/t16-,17-,18+/m0/s1
SMILES=CCCCCC(O)C=CC1C=CC(=O)C1CCCCCCC(=O)O
IONMODE=positive
INSTRUMENTTYPE=LC-ESI-Orbitrap
INSTRUMENT=Orbitrap
COMMENT=DB#=CCMSLIB00010123111; origin=GNPS
NUM_PEAKS=22
COMPOUND_NAME=prostaglandin A1
PRECURSOR_MZ=359.219
COLLISION_ENERGY=205060
PARENT_MASS=358.2117235480092
55.05471 0.0009641038329106617
56.96529 0.003849267712693209
60.634998 0.0007351051181075304
67.054581 0.003550992075764761
82.409523 0.0008115296591822849
91.126244 0.0008244503549754988
92.384132 0.0008722844202525033
93.069733 0.0007612214181150904
104.291901 0.0007452767296894222
105.069778 0.0009341388150072508
109.100739 0.0018399620626378837
119.085907 0.0007939355202298235
131.085007 0.0009047236139461042
136.216049 0.0008827309402555274
144.887589 0.0008057565823385085
301.215973 0.0031768417146038224
302.220551 0.0009880208655491639
341.208923 0.0072644550284186584
357.172913 0.0009272661044789454
357.463135 0.0012263664666707903
359.218781 1.0
375.183685 0.005029449564613788
END IONS

BEGIN IONS
CHARGE=1+
PRECURSORTYPE=M+Na
FORMULA=C22H21N5O4S
ONTOLOGY=
INCHIKEY=FXOQXDOECXRMKB-UHFFFAOYSA-N
INCHI=InChI=1S/C22H21N5O4S/c1-13-4-7-15(8-5-13)27-20-19(21(29)24-12-23-20)26-22(27)32-11-18(28)25-14-6-9-16(30-2)17(10-14)31-3/h4-10,12H,11H2,1-3H3,(H,25,28)(H,23,24,29)
SMILES=COc1ccc(N=C(O)CSc2nc3c(O)ncnc3n2-c2ccc(C)cc2)cc1OC
IONMODE=positive
INSTRUMENTTYPE=LC-ESI-Orbitrap
INSTRUMENT=Orbitrap
COMMENT=DB#=CCMSLIB00010124442; origin=GNPS
NUM_PEAKS=23
COMPOUND_NAME="N-(3,4-dimethoxyphenyl)-2-[9-(4-methylphenyl)-6-oxohydropurin-8-ylthio]acetami de "
PRECURSOR_MZ=474.121
COLLISION_ENERGY=205060
PARENT_MASS=473.1137235480092
55.646721 0.0010566016297902606
64.222893 0.0010655717179101638
66.733917 0.0009399904842315195
68.129333 0.0009441017746198084
70.663239 0.0009803558807710837
71.002533 0.0009624157045312774
74.142479 0.0010039023620858295
82.384872 0.0009743758220244816
104.274063 0.0010184787552806722
157.954819 0.001163868933557436
195.801468 0.0011096746511663543
200.655548 0.0010375401925354665
210.264542 0.0023385767235930884
220.608368 0.00101960001629566
249.074081 0.0015208036899952496
279.030731 0.04762257158223758
280.038574 0.014408577796266126
281.046631 0.005495300234455679
321.041168 0.007035912869049047
430.094116 0.002008925985186647
458.088806 0.008517472423519721
473.611877 0.004609504032615241
474.120392 1.0
END IONS

BEGIN IONS
CHARGE=1+
PRECURSORTYPE=M+Na
FORMULA=C18H19NO5
ONTOLOGY=
INCHIKEY=MHHDPGHZHFJLBZ-UHFFFAOYSA-N
INCHI=InChI=1S/C18H19NO5/c20-11-16(17(21)23-12-14-7-3-1-4-8-14)19-18(22)24-13-15-9-5-2-6-10-15/h1-10,16,20H,11-13H2,(H,19,22)/t16-/m0/s1
SMILES=O=C(OCc1ccccc1)C(CO)N=C(O)OCc1ccccc1
IONMODE=positive
INSTRUMENTTYPE=LC-ESI-Orbitrap
INSTRUMENT=Orbitrap
COMMENT=DB#=CCMSLIB00010122502; origin=GNPS
NUM_PEAKS=11
COMPOUND_NAME=phenylmethyl (2S)-3-hydroxy-2-[(phenylmethoxy)carbonylamino]propanoate
PRECURSOR_MZ=352.116
COLLISION_ENERGY=205060
PARENT_MASS=351.1087235480092
62.099442 0.001249148564950068
79.678917 0.001170397894551042
91.054298 0.02727126664117076
99.810448 0.001170397894551042
172.073318 0.006503266568756351
209.620667 0.0025996773032873877
286.570679 0.0012410019438743067
308.123657 0.009219712107462984
334.105347 0.0018067395185799534
336.260742 0.001300743831763223
352.114929 1.0
END IONS

BEGIN IONS
CHARGE=1+
PRECURSORTYPE=M+Na
FORMULA=C16H14N2O2S
ONTOLOGY=
INCHIKEY=SYPXMILWPQNCMS-UHFFFAOYSA-N
INCHI=InChI=1S/C16H14N2O2S/c1-20-15-7-6-11(9-19)8-12(15)10-21-16-17-13-4-2-3-5-14(13)18-16/h2-9H,10H2,1H3,(H,17,18)
SMILES=COc1ccc(C=O)cc1CSc1nc2ccccc2[nH]1
IONMODE=positive
INSTRUMENTTYPE=LC-ESI-Orbitrap
INSTRUMENT=Orbitrap
COMMENT=DB#=CCMSLIB00010115407; origin=GNPS
NUM_PEAKS=11
COMPOUND_NAME=3-(benzimidazol-2-ylthiomethyl)-4-methoxybenzaldehyde
PRECURSOR_MZ=321.067
COLLISION_ENERGY=205060
PARENT_MASS=320.05972354800923
52.046902 0.0021934212047847786
58.796749 0.002373300098566292
60.852699 0.0018309101688475454
66.732727 0.002568780733134977
73.351768 0.0022099406950300197
82.385017 0.002290702647340087
91.054031 0.0027000189056388363
118.636887 0.002821161834103937
172.00589 0.018230175235081525
220.599579 0.0024953607764894616
321.066315 1.0
END IONS

BEGIN IONS
CHARGE=1+
PRECURSORTYPE=M+Na
FORMULA=C20H17N3O2S
ONTOLOGY=
INCHIKEY=PJDSKMDZRFBUMU-UHFFFAOYSA-N
INCHI=InChI=1S/C20H17N3O2S/c1-12-18(14-8-4-6-10-16(14)23(12)2)17(24)11-26-20-21-15-9-5-3-7-13(15)19(25)22-20/h3-10H,11H2,1-2H3,(H,21,22,25)
SMILES=Cc1c(C(=O)CSc2nc(O)c3ccccc3n2)c2ccccc2n1C
IONMODE=positive
INSTRUMENTTYPE=LC-ESI-Orbitrap
INSTRUMENT=Orbitrap
COMMENT=DB#=CCMSLIB00010120794; origin=GNPS
NUM_PEAKS=15
COMPOUND_NAME="1-(1,2-dimethylindol-3-yl)-2-(4-hydroxyquinazolin-2-ylthio)ethan-1-one "
PRECURSOR_MZ=386.093
COLLISION_ENERGY=205060
PARENT_MASS=385.08572354800924
72.419327 0.0028315781277587874
107.048653 0.013627106822436364
144.08046 0.014633841416271595
154.890228 0.0026243092407927104
157.945618 0.003979781961904198
158.096558 0.00461365189135601
172.075638 0.13106850949543733
186.091049 0.00542847084911154
213.008896 0.018646523201503742
214.684998 0.002438973569378599
221.016739 0.0025310930746968554
240.982666 0.0024115570499386417
241.003754 0.13630506470846918
386.092865 1.0
401.696289 0.002974144028846565
END IONS

BEGIN IONS
CHARGE=1+
PRECURSORTYPE=M+Na
FORMULA=C18H16O5
ONTOLOGY=
INCHIKEY=GGMKKMHAXFYCRV-UHFFFAOYSA-N
INCHI=InChI=1S/C18H16O5/c1-20-15-7-4-12(9-17(15)21-2)3-6-14(19)13-5-8-16-18(10-13)23-11-22-16/h3-10H,11H2,1-2H3/b6-3+
SMILES=COc1ccc(C=CC(=O)c2ccc3c(c2)OCO3)cc1OC
IONMODE=positive
INSTRUMENTTYPE=LC-ESI-Orbitrap
INSTRUMENT=Orbitrap
COMMENT=DB#=CCMSLIB00010120011; origin=GNPS
NUM_PEAKS=18
COMPOUND_NAME="(2E)-1-(2H-benzo[3,4-d]1,3-dioxolan-5-yl)-3-(3,4-dimethoxyphenyl)prop-2-en-1-o ne "
PRECURSOR_MZ=335.089
COLLISION_ENERGY=205060
PARENT_MASS=334.0817235480092
50.458199 0.01934564680032958
70.497917 0.01659914858555342
70.964737 0.018513114528975555
73.040031 0.018384372425157922
82.382942 0.021894740455918705
83.243561 0.018513114528975555
93.078529 0.02449533095303488
93.639793 0.017285773139247458
97.452187 0.020384166437791815
99.805779 0.02410052183466081
104.761047 0.022641444658060974
166.930069 0.019165407854984894
167.566833 0.019646045042570722
280.358856 0.018633273825872012
335.088196 1.0
335.125885 0.0556680856907443
335.1828 0.04130046690469651
335.219147 0.4634973221642406
END IONS

BEGIN IONS
CHARGE=1+
PRECURSORTYPE=M+Na
FORMULA=C14H19NO5
ONTOLOGY=
INCHIKEY=XWVOEFLBOSSYGM-UHFFFAOYSA-N
INCHI=InChI=1S/C14H19NO5/c1-17-11-8-10(9-12(18-2)13(11)19-3)14(16)15-4-6-20-7-5-15/h8-9H,4-7H2,1-3H3
SMILES=COc1cc(C(=O)N2CCOCC2)cc(OC)c1OC
IONMODE=positive
INSTRUMENTTYPE=LC-ESI-Orbitrap
INSTRUMENT=Orbitrap
COMMENT=DB#=CCMSLIB00010117023; origin=GNPS
NUM_PEAKS=26
COMPOUND_NAME=TRIMETOZINE
PRECURSOR_MZ=304.116
COLLISION_ENERGY=205060
PARENT_MASS=303.1087235480092
59.560768 0.0031434543528888405
60.659538 0.003108101539173127
65.800423 0.0030742217593622352
72.937462 0.023474268307233627
80.551598 0.0030933712001249133
84.978577 0.003896174678252569
92.359901 0.0035161319308086515
147.245285 0.0033747206759457984
162.709412 0.0032112139125106244
179.797394 0.0033982892184229404
180.887848 0.020022949868237116
196.882355 0.005482632193745203
197.890808 0.036660867823194686
198.898499 0.005391304091646278
208.882782 0.046827747834271904
211.385147 0.004419101714464162
215.900955 0.01694725507497006
224.877197 0.004734330970095939
226.893295 0.05727155821945554
243.869034 0.0055047277023175245
252.873123 0.013989402994088716
280.868011 0.055487714160716836
295.350647 0.0036531240839570403
303.884277 0.007649465067737464
304.115173 1.0
322.125854 0.06336844555151126
END IONS

BEGIN IONS
CHARGE=1+
PRECURSORTYPE=M+Na
FORMULA=C26H22N2O4
ONTOLOGY=
INCHIKEY=LVKMUWHJXWDZBZ-UHFFFAOYSA-N
INCHI=InChI=1S/C26H22N2O4/c29-23(22-16-20-8-4-5-9-24(20)32-26(22)31)14-15-27-21-12-10-19(11-13-21)25(30)28-17-18-6-2-1-3-7-18/h1-13,16,27H,14-15,17H2,(H,28,30)
SMILES=O=C(NCc1ccccc1)c1ccc(NCCC(=O)c2cc3ccccc3oc2=O)cc1
IONMODE=positive
INSTRUMENTTYPE=LC-ESI-Orbitrap
INSTRUMENT=Orbitrap
COMMENT=DB#=CCMSLIB00010117794; origin=GNPS
NUM_PEAKS=15
COMPOUND_NAME=(4-{[3-oxo-3-(2-oxochromen-3-yl)propyl]amino}phenyl)-N-benzylcarboxamide
PRECURSOR_MZ=449.147
COLLISION_ENERGY=205060
PARENT_MASS=448.1397235480092
57.070358 0.008400687328963279
60.649799 0.005423170986717095
69.083542 0.00529361493213081
73.961052 0.007323326453982599
83.04937 0.03582565846296515
107.038528 0.005332254457182861
113.402901 0.0060641325199334494
127.890419 0.0054640834250075
131.426758 0.005807293323999236
211.036087 0.008984826031220736
220.646927 0.006759643970870344
261.099762 0.02312689220027093
337.023407 0.008648434871944069
393.085144 0.07475611640952441
449.146515 1.0
END IONS

BEGIN IONS
CHARGE=1+
PRECURSORTYPE=M+Na
FORMULA=C20H34O6
ONTOLOGY=
INCHIKEY=BWMFRQKICHXLSH-UHFFFAOYSA-N
INCHI=InChI=1S/C20H34O6/c1-16(2)13(21)7-12-18(4,25)11-6-5-10-15(23)19(11,9-17(10,3)24)8-14(22)20(12,16)26/h10-15,21-26H,5-9H2,1-4H3/t10?,11-,12-,13-,14+,15+,17?,18+,19-,20-/m0/s1
SMILES=CC1(O)CC23CC(O)C4(O)C(CC(O)C4(C)C)C(C)(O)C2CCC1C3O
IONMODE=positive
INSTRUMENTTYPE=LC-ESI-Orbitrap
INSTRUMENT=Orbitrap
COMMENT=DB#=CCMSLIB00010124599; origin=GNPS
NUM_PEAKS=15
COMPOUND_NAME=HMS1361D15
PRECURSOR_MZ=393.225
COLLISION_ENERGY=205060
PARENT_MASS=392.21772354800925
50.544159 0.0008315946920870044
59.521019 0.0007477264774020934
81.083542 0.0008129901233364784
104.255508 0.0007784387813712158
104.27533 0.0009937202197701598
105.8964 0.0007624920081564792
112.85183 0.0008634882385164775
131.210083 0.0007462499243266549
188.356979 0.0008386821468491096
201.462204 0.0008292322071663027
259.541656 0.0007580623489301635
375.212799 0.0013327368058908562
385.946228 0.0008321853133171799
393.224091 1.0
411.234711 0.007961278872149698
END IONS

BEGIN IONS
CHARGE=1+
PRECURSORTYPE=M+Na
FORMULA=C15H10O5
ONTOLOGY=
INCHIKEY=BYVNWEGWXASECK-UHFFFAOYSA-N
INCHI=InChI=1S/C15H10O5/c16-9-2-4-14-10(6-9)12(18)7-15(20-14)8-1-3-11(17)13(19)5-8/h1-7,16-17,19H
SMILES=O=c1cc(-c2ccc(O)c(O)c2)oc2ccc(O)cc12
IONMODE=positive
INSTRUMENTTYPE=LC-ESI-Orbitrap
INSTRUMENT=Orbitrap
COMMENT=DB#=CCMSLIB00010119545; origin=GNPS
NUM_PEAKS=25
COMPOUND_NAME="6,3',4'-Trihydroxyflavone "
PRECURSOR_MZ=293.042
COLLISION_ENERGY=205060
PARENT_MASS=292.0347235480092
51.068748 0.029338790843718023
59.090271 0.03137133965993356
76.308281 0.02760061116640267
84.960091 0.4535667727330072
91.007278 0.033221659961591835
92.356842 0.04051080054388203
104.263344 0.03057233771149021
139.007782 0.0347916287023928
158.927612 0.22649602601662486
176.938141 0.34940215029647176
185.355835 0.03340388847614909
194.9487 0.1177196204039866
204.933411 0.06858800936374214
222.944122 0.03246471074727709
232.927521 0.26832447889653627
237.492401 0.028707999831789063
250.938385 0.3247452305190709
266.931183 0.045206689188242055
274.56189 0.03549250760453609
277.045837 0.033151572071377505
293.041931 1.0
293.078033 0.0604157613647514
293.13623 0.11814014774527257
293.17157 0.04332833373049805
311.051727 0.03529626151193597
END IONS

BEGIN IONS
CHARGE=1+
PRECURSORTYPE=M+Na
FORMULA=C21H13ClO3
ONTOLOGY=
INCHIKEY=WTBGPHMPZFMGIZ-UHFFFAOYSA-N
INCHI=InChI=1S/C21H13ClO3/c22-15-8-4-7-14(11-15)20-19(13-5-2-1-3-6-13)17-10-9-16(23)12-18(17)25-21(20)24/h1-12,23H
SMILES=O=c1oc2cc(O)ccc2c(-c2ccccc2)c1-c1cccc(Cl)c1
IONMODE=positive
INSTRUMENTTYPE=LC-ESI-Orbitrap
INSTRUMENT=Orbitrap
COMMENT=DB#=CCMSLIB00010120883; origin=GNPS
NUM_PEAKS=13
COMPOUND_NAME=3-(3-chlorophenyl)-7-hydroxy-4-phenylchromen-2-one
PRECURSOR_MZ=371.045
COLLISION_ENERGY=205060
PARENT_MASS=370.03772354800924
51.759399 0.014138958746824068
66.736153 0.01779168471479645
82.223267 0.016731424433827476
83.838226 0.01446220883248534
85.960831 0.01400965871255956
90.28231 0.013802778657736344
92.369904 0.01581339419054946
97.014832 0.013725198637177638
132.548416 0.016233619301909114
169.3694 0.015819859192262687
175.415176 0.015496609106601413
371.044037 1.0
389.059296 0.017701174690811294
END IONS

BEGIN IONS
CHARGE=1+
PRECURSORTYPE=M+Na
FORMULA=C20H21N3O2S
ONTOLOGY=
INCHIKEY=BAZGEONHJRHCHX-UHFFFAOYSA-N
INCHI=InChI=1S/C20H21N3O2S/c1-14(11-12-15-7-3-2-4-8-15)21-18(24)13-26-20-22-17-10-6-5-9-16(17)19(25)23-20/h2-10,14H,11-13H2,1H3,(H,21,24)(H,22,23,25)
SMILES=CC(CCc1ccccc1)N=C(O)CSc1nc(O)c2ccccc2n1
IONMODE=positive
INSTRUMENTTYPE=LC-ESI-Orbitrap
INSTRUMENT=Orbitrap
COMMENT=DB#=CCMSLIB00010121142; origin=GNPS
NUM_PEAKS=15
COMPOUND_NAME=2-(4-hydroxyquinazolin-2-ylthio)-N-(1-methyl-3-phenylpropyl)acetamide
PRECURSOR_MZ=390.125
COLLISION_ENERGY=205060
PARENT_MASS=389.1177235480092
54.32132 0.0014689815005248777
62.208511 0.0012610589175967304
82.388153 0.0014470059429796264
83.514214 0.0013776984153369106
86.195892 0.001345580292770774
90.572472 0.0012700745309486285
92.362717 0.0012717649584521094
111.76178 0.0014616563146764606
136.728668 0.0014351729504552603
167.429657 0.001397983545378681
200.267487 0.001676904083453025
241.003845 0.06567310851023188
244.076584 0.0019417377256650283
269.617981 0.0015371620764986062
390.123993 1.0
END IONS

BEGIN IONS
CHARGE=1+
PRECURSORTYPE=M+Na
FORMULA=C13H15ClN2O
ONTOLOGY=
INCHIKEY=ORWWIGSFLHONFB-UHFFFAOYSA-N
INCHI=InChI=1S/C13H15ClN2O/c1-2-13(17)15-6-5-9-8-16-12-4-3-10(14)7-11(9)12/h3-4,7-8,16H,2,5-6H2,1H3,(H,15,17)
SMILES=CCC(O)=NCCc1c[nH]c2ccc(Cl)cc12
IONMODE=positive
INSTRUMENTTYPE=LC-ESI-Orbitrap
INSTRUMENT=Orbitrap
COMMENT=DB#=CCMSLIB00010116062; origin=GNPS
NUM_PEAKS=9
COMPOUND_NAME=N-[2-(5-chloroindol-3-yl)ethyl]propanamide
PRECURSOR_MZ=273.076
COLLISION_ENERGY=205060
PARENT_MASS=272.06872354800925
54.036419 0.0018830770760948673
56.451721 0.0019433278916326918
63.24099 0.0023516945302779475
94.820763 0.0021183421653378017
101.949852 0.0024033380864532257
147.53949 0.0023717781354572224
165.188278 0.0025802650844611234
230.028061 0.0025334033390428156
273.075775 1.0
END IONS

BEGIN IONS
CHARGE=1+
PRECURSORTYPE=M+Na
FORMULA=C18H17NO3
ONTOLOGY=
INCHIKEY=CLBYJZSPPMBDDF-UHFFFAOYSA-N
INCHI=InChI=1S/C18H17NO3/c1-13(20)19-16-8-6-15(7-9-16)18(21)12-5-14-3-10-17(22-2)11-4-14/h3-12H,1-2H3,(H,19,20)/b12-5+
SMILES=COc1ccc(C=CC(=O)c2ccc(N=C(C)O)cc2)cc1
IONMODE=positive
INSTRUMENTTYPE=LC-ESI-Orbitrap
INSTRUMENT=Orbitrap
COMMENT=DB#=CCMSLIB00010117895; origin=GNPS
NUM_PEAKS=10
COMPOUND_NAME=N-{4-[(2E)-3-(4-methoxyphenyl)prop-2-enoyl]phenyl}acetamide
PRECURSOR_MZ=318.11
COLLISION_ENERGY=205060
PARENT_MASS=317.10272354800924
55.174351 0.0027178176358848474
66.762207 0.0027467819446154143
78.293114 0.002563341322655158
98.690369 0.00261402886293365
117.894577 0.002965221106291772
127.212013 0.0028517775637637187
256.023468 0.005025307564753332
317.600098 0.005423566809798626
318.109741 1.0
336.117615 0.022959042053762584
END IONS

BEGIN IONS
CHARGE=1+
PRECURSORTYPE=M+Na
FORMULA=C23H25N3O3
ONTOLOGY=
INCHIKEY=FSJCNGLCLCELJX-UHFFFAOYSA-N
INCHI=InChI=1S/C23H25N3O3/c1-4-11-24-23(29)18-13-22(28)26(20-8-6-5-7-17(18)20)14-21(27)25-19-12-15(2)9-10-16(19)3/h5-10,12-13H,4,11,14H2,1-3H3,(H,24,29)(H,25,27)
SMILES=CCCN=C(O)c1cc(=O)n(CC(O)=Nc2cc(C)ccc2C)c2ccccc12
IONMODE=positive
INSTRUMENTTYPE=LC-ESI-Orbitrap
INSTRUMENT=Orbitrap
COMMENT=DB#=CCMSLIB00010125036; origin=GNPS
NUM_PEAKS=12
COMPOUND_NAME="N-(2,5-dimethylphenyl)-2-[2-oxo-4-(N-propylcarbamoyl)hydroquinolyl]acetamide "
PRECURSOR_MZ=414.179
COLLISION_ENERGY=205060
PARENT_MASS=413.1717235480092
78.260551 0.001171941402073527
92.374931 0.0012134753136559648
104.282799 0.001330797909259964
120.317596 0.0010995781952958777
123.588013 0.0011668031862076583
144.271011 0.001214759867622432
220.245804 0.001040916897493878
293.087769 0.001600982426873554
307.102783 0.0012306026998755268
396.167419 0.005358302778789958
414.178314 1.0
432.191864 0.0015371829132056858
END IONS

BEGIN IONS
CHARGE=1+
PRECURSORTYPE=M+Na
FORMULA=C17H20N2O
ONTOLOGY=
INCHIKEY=VMQLWVGHPWFHEI-UHFFFAOYSA-N
INCHI=InChI=1S/C17H20N2O/c20-17(18-13-11-15-7-3-1-4-8-15)19-14-12-16-9-5-2-6-10-16/h1-10H,11-14H2,(H2,18,19,20)
SMILES=OC(=NCCc1ccccc1)NCCc1ccccc1
IONMODE=positive
INSTRUMENTTYPE=LC-ESI-Orbitrap
INSTRUMENT=Orbitrap
COMMENT=DB#=CCMSLIB00010115131; origin=GNPS
NUM_PEAKS=9
COMPOUND_NAME=Untitled
PRECURSOR_MZ=291.147
COLLISION_ENERGY=205060
PARENT_MASS=290.1397235480092
50.113369 0.0009413006316414779
52.54092 0.0007716200545379285
66.732002 0.000976058291755799
66.754494 0.0007504494797410239
68.154694 0.0007321227134989272
85.530487 0.0007703561396246805
160.649597 0.000721379436736319
291.146484 1.0
292.432007 0.0011725970607658692
END IONS

BEGIN IONS
CHARGE=1+
PRECURSORTYPE=M+Na
FORMULA=C17H14O4
ONTOLOGY=
INCHIKEY=PJJFYUAXYSKODT-UHFFFAOYSA-N
INCHI=InChI=1S/C17H14O4/c1-19-11-7-8-16-13(9-11)14(18)10-17(21-16)12-5-3-4-6-15(12)20-2/h3-10H,1-2H3
SMILES=COc1ccc2oc(-c3ccccc3OC)cc(=O)c2c1
IONMODE=positive
INSTRUMENTTYPE=LC-ESI-Orbitrap
INSTRUMENT=Orbitrap
COMMENT=DB#=CCMSLIB00010114783; origin=GNPS
NUM_PEAKS=12
COMPOUND_NAME="6,2'-dimethoxyflavone "
PRECURSOR_MZ=305.078
COLLISION_ENERGY=205060
PARENT_MASS=304.0707235480092
52.09544 0.001493258488870538
60.5369 0.0018054622356954639
89.996391 0.001624346066137799
117.603081 0.0016218129728572722
165.37645 0.0013343068855174824
209.348923 0.002364009304051619
209.369736 0.001994810958414841
279.064484 0.0015800169337285804
290.896149 0.0018231938886591513
305.078064 1.0
323.088257 0.04537150029415546
323.124542 0.0014793264758276407
END IONS

BEGIN IONS
CHARGE=1+
PRECURSORTYPE=M+Na
FORMULA=C18H27NO3
ONTOLOGY=
INCHIKEY=YKPUWZUDDOIDPM-UHFFFAOYSA-N
INCHI=InChI=1S/C18H27NO3/c1-14(2)8-6-4-5-7-9-18(21)19-13-15-10-11-16(20)17(12-15)22-3/h6,8,10-12,14,20H,4-5,7,9,13H2,1-3H3,(H,19,21)/b8-6+
SMILES=COc1cc(CN=C(O)CCCCC=CC(C)C)ccc1O
IONMODE=positive
INSTRUMENTTYPE=LC-ESI-Orbitrap
INSTRUMENT=Orbitrap
COMMENT=DB#=CCMSLIB00010116048; origin=GNPS
NUM_PEAKS=9
COMPOUND_NAME=Capsaicin
PRECURSOR_MZ=328.188
COLLISION_ENERGY=205060
PARENT_MASS=327.1807235480092
54.61755 0.0006884252684070736
66.098557 0.000577889380240304
66.737938 0.0006186131285122717
68.525772 0.0005553458767326076
92.374046 0.0008290191612507717
98.984039 0.009289135461488546
109.266373 0.0006161890958770356
263.903564 0.0010166392872180516
328.187683 1.0
END IONS

BEGIN IONS
CHARGE=1+
PRECURSORTYPE=M+Na
FORMULA=C18H27NO3
ONTOLOGY=
INCHIKEY=YKPUWZUDDOIDPM-UHFFFAOYSA-N
INCHI=InChI=1S/C18H27NO3/c1-14(2)8-6-4-5-7-9-18(21)19-13-15-10-11-16(20)17(12-15)22-3/h6,8,10-12,14,20H,4-5,7,9,13H2,1-3H3,(H,19,21)/b8-6+
SMILES=COc1cc(CN=C(O)CCCCC=CC(C)C)ccc1O
IONMODE=positive
INSTRUMENTTYPE=LC-ESI-Orbitrap
INSTRUMENT=Orbitrap
COMMENT=DB#=CCMSLIB00010116049; origin=GNPS
NUM_PEAKS=10
COMPOUND_NAME=Capsaicin
PRECURSOR_MZ=328.188
COLLISION_ENERGY=205060
PARENT_MASS=327.1807235480092
63.31329 0.000909022467438884
64.550346 0.0009963540154228373
72.89418 0.0010363630497209047
89.056763 0.0010161434302369352
98.98407 0.006222910549694017
136.201355 0.0014506501468073436
172.54422 0.0010393744824100065
263.907074 0.0012596392733843125
328.187775 1.0
345.780884 0.0011378913518106239
END IONS

BEGIN IONS
CHARGE=1+
PRECURSORTYPE=M+Na
FORMULA=C21H24ClNO5
ONTOLOGY=
INCHIKEY=XPGFHNDBGHFQQE-UHFFFAOYSA-N
INCHI=InChI=1S/C21H24ClNO5/c1-10(2)28-21(26)17-11(3)23-14-6-5-7-15(24)19(14)18(17)12-8-13(22)20(25)16(9-12)27-4/h8-10,18,23,25H,5-7H2,1-4H3
SMILES=COc1cc(C2C(C(=O)OC(C)C)=C(C)NC3=C2C(=O)CCC3)cc(Cl)c1O
IONMODE=positive
INSTRUMENTTYPE=LC-ESI-Orbitrap
INSTRUMENT=Orbitrap
COMMENT=DB#=CCMSLIB00010117664; origin=GNPS
NUM_PEAKS=14
COMPOUND_NAME="methylethyl 4-(3-chloro-4-hydroxy-5-methoxyphenyl)-2-methyl-5-oxo-1,4,6,7,8-pe ntahydroquinoline-3-carboxylate "
PRECURSOR_MZ=428.124
COLLISION_ENERGY=205060
PARENT_MASS=427.11672354800925
55.831081 0.0010613322976561488
56.055099 0.0009768677711784932
60.36684 0.0009006918197290188
67.971977 0.000963448173513819
73.953529 0.0009263469329114844
80.347717 0.0009563436806325208
152.344803 0.0011205364050002999
184.073456 0.007057129595422812
228.062851 0.013228565744977123
332.739899 0.0012574952399897696
386.031342 0.0011659262206308158
386.075623 0.06702496992431346
428.122711 1.0
446.136749 0.01044557800575306
END IONS

BEGIN IONS
CHARGE=1+
PRECURSORTYPE=M+Na
FORMULA=C19H19N5O2S
ONTOLOGY=
INCHIKEY=JDLXWYZXYPEFMD-UHFFFAOYSA-N
INCHI=InChI=1S/C19H19N5O2S/c1-4-24-16-15(17(25)21-10-20-16)23-19(24)27-9-14-12(3)26-18(22-14)13-7-5-6-11(2)8-13/h5-8,10H,4,9H2,1-3H3,(H,20,21,25)
SMILES=CCn1c(SCc2nc(-c3cccc(C)c3)oc2C)nc2c(O)ncnc21
IONMODE=positive
INSTRUMENTTYPE=LC-ESI-Orbitrap
INSTRUMENT=Orbitrap
COMMENT=DB#=CCMSLIB00010116610; origin=GNPS
NUM_PEAKS=20
COMPOUND_NAME="9-ethyl-8-{[5-methyl-2-(3-methylphenyl)(1,3-oxazol-4-yl)]methylthio}hydropurin -6-one "
PRECURSOR_MZ=404.115
COLLISION_ENERGY=205060
PARENT_MASS=403.10772354800923
55.23164 0.0013336816217095373
60.982769 0.0013588175281053934
69.033707 0.020808094747581284
69.565224 0.0013415673962651
73.041389 0.0012696097034455907
73.952637 0.0015367403165152762
91.054604 0.0025150692223147707
117.069893 0.0020547371326337994
118.065002 0.5254976663035925
136.075714 0.001680655702154295
157.623138 0.0015909550165847696
159.091492 0.0025318264932453413
186.091064 0.36843423017590204
212.618942 0.0014549254055013134
215.515366 0.0013997249836123747
217.013947 0.0013395959526262093
218.022705 0.029322759823950082
219.030746 0.08325061484398488
404.114258 1.0
428.931793 0.0014283109163762894
END IONS

BEGIN IONS
CHARGE=1+
PRECURSORTYPE=M+Na
FORMULA=C22H25N3O6
ONTOLOGY=
INCHIKEY=SRNHKDNMPLHNHG-UHFFFAOYSA-N
INCHI=InChI=1S/C22H25N3O6/c1-22(2)8-11-16(12(26)9-22)15(17-19(23-11)24-21(28)25-20(17)27)10-6-13(29-3)18(31-5)14(7-10)30-4/h6-7,15H,8-9H2,1-5H3,(H3,23,24,25,27,28)
SMILES=COc1cc(C2C3=C(CC(C)(C)CC3=O)Nc3nc(O)nc(O)c32)cc(OC)c1OC
IONMODE=positive
INSTRUMENTTYPE=LC-ESI-Orbitrap
INSTRUMENT=Orbitrap
COMMENT=DB#=CCMSLIB00010122051; origin=GNPS
NUM_PEAKS=14
COMPOUND_NAME="8,8-dimethyl-5-(3,4,5-trimethoxyphenyl)-1,3,5,7,8,9,10-heptahydropyrimidino[4, 5-b]quinoline-2,4,6-trione "
PRECURSOR_MZ=450.164
COLLISION_ENERGY=205060
PARENT_MASS=449.1567235480092
98.756737 0.0009347036352569522
100.540382 0.0008507008039484085
102.819351 0.0010018370455240262
145.360886 0.0009154242969238439
153.546188 0.0009663768339470589
208.37851 0.00449587284450112
260.101959 0.0014951815425123182
282.084686 0.026339363175912945
434.13739 0.0009798035160004737
435.136963 0.0013209789497167315
447.695068 0.0010514124869520193
450.16333 1.0
452.649323 0.001463164069923406
468.173859 0.033139805499018134
END IONS

BEGIN IONS
CHARGE=1+
PRECURSORTYPE=M+Na
FORMULA=C12H13NO
ONTOLOGY=
INCHIKEY=QRSYDKNRNVBMFQ-UHFFFAOYSA-N
INCHI=InChI=1S/C12H13NO/c1-7-4-5-10-8(2)6-11(14)13-12(10)9(7)3/h4-6H,1-3H3,(H,13,14)
SMILES=Cc1ccc2c(C)cc(O)nc2c1C
IONMODE=positive
INSTRUMENTTYPE=LC-ESI-Orbitrap
INSTRUMENT=Orbitrap
COMMENT=DB#=CCMSLIB00010115444; origin=GNPS
NUM_PEAKS=11
COMPOUND_NAME="4,7,8-trimethylhydroquinolin-2-one "
PRECURSOR_MZ=210.089
COLLISION_ENERGY=205060
PARENT_MASS=209.08172354800925
59.467609 0.018378077507976424
66.75666 0.02680674691131012
79.255363 0.023059567235535587
84.81739 0.019709966305201325
84.959213 0.04267013885437684
118.680458 0.02332793288870777
167.070984 0.021041855102426225
176.979828 0.022622230615551294
182.175888 0.019550934807025216
210.088455 1.0
251.113144 0.027711238557186733
END IONS

BEGIN IONS
CHARGE=1+
PRECURSORTYPE=M+Na
FORMULA=C19H21NO4
ONTOLOGY=
INCHIKEY=XDZOCYYGFXEJLH-UHFFFAOYSA-N
INCHI=InChI=1S/C19H21NO4/c1-22-15-10-14(11-16(12-15)23-2)19(21)20-9-5-7-13-6-4-8-17(24-3)18(13)20/h4,6,8,10-12H,5,7,9H2,1-3H3
SMILES=COc1cc(OC)cc(C(=O)N2CCCc3cccc(OC)c32)c1
IONMODE=positive
INSTRUMENTTYPE=LC-ESI-Orbitrap
INSTRUMENT=Orbitrap
COMMENT=DB#=CCMSLIB00010118193; origin=GNPS
NUM_PEAKS=18
COMPOUND_NAME="3,5-dimethoxyphenyl 8-methoxy(1,2,3,4-tetrahydroquinolyl) ketone "
PRECURSOR_MZ=350.136
COLLISION_ENERGY=205060
PARENT_MASS=349.12872354800925
63.613079 0.0012540541515187714
73.976219 0.0011616454164140452
75.888428 0.0010205530550102438
81.573692 0.0012738882214924686
82.552803 0.0010629258408631427
88.112419 0.0010570657747345502
96.140953 0.0012297123383692337
103.44104 0.0011048478523984575
105.99157 0.0012811006105738132
149.963135 0.0012130336886186247
170.057098 0.0017692891965173177
177.898941 0.0013347427543663128
198.605453 0.0011237803737369867
204.379913 0.0013478152095762496
210.21077 0.0012243030465582253
257.216858 0.0011972565875031835
350.135773 1.0
368.145203 0.0022660424944949188
END IONS

BEGIN IONS
CHARGE=1+
PRECURSORTYPE=M+Na
FORMULA=C21H24N2O4
ONTOLOGY=
INCHIKEY=VLKOBKMDQICOFI-UHFFFAOYSA-N
INCHI=InChI=1S/C21H24N2O4/c1-13-15(16-7-5-6-8-17(16)23-13)9-10-22-21(24)14-11-18(25-2)20(27-4)19(12-14)26-3/h5-8,11-12,23H,9-10H2,1-4H3,(H,22,24)
SMILES=COc1cc(C(O)=NCCc2c(C)[nH]c3ccccc23)cc(OC)c1OC
IONMODE=positive
INSTRUMENTTYPE=LC-ESI-Orbitrap
INSTRUMENT=Orbitrap
COMMENT=DB#=CCMSLIB00010117619; origin=GNPS
NUM_PEAKS=13
COMPOUND_NAME="N-[2-(2-methylindol-3-yl)ethyl](3,4,5-trimethoxyphenyl)carboxamide "
PRECURSOR_MZ=391.163
COLLISION_ENERGY=205060
PARENT_MASS=390.15572354800923
53.971821 0.0008618412173318745
65.134819 0.0009311187495872064
65.608017 0.000830612485175326
66.750969 0.0008959415570430482
74.66021 0.0009479894439706292
136.217072 0.0009935762139003034
149.023148 0.007871076307227548
187.423599 0.0010136774667826795
209.203857 0.0018665449105063506
209.223038 0.0018360340802384583
238.561539 0.0010039857912858196
354.664795 0.0009680906968530053
391.162201 1.0
END IONS

BEGIN IONS
CHARGE=1+
PRECURSORTYPE=M+Na
FORMULA=C27H25ClN2O3
ONTOLOGY=
INCHIKEY=DLADOAYNOOCYAW-UHFFFAOYSA-N
INCHI=InChI=1S/C27H25ClN2O3/c1-32-24-9-5-6-19(27(24)33-2)26-25-22(29-20-7-3-4-8-21(20)30-26)14-17(15-23(25)31)16-10-12-18(28)13-11-16/h3-13,17,26,29-30H,14-15H2,1-2H3
SMILES=COc1cccc(C2Nc3ccccc3NC3=C2C(=O)CC(c2ccc(Cl)cc2)C3)c1OC
IONMODE=positive
INSTRUMENTTYPE=LC-ESI-Orbitrap
INSTRUMENT=Orbitrap
COMMENT=DB#=CCMSLIB00010117245; origin=GNPS
NUM_PEAKS=22
COMPOUND_NAME="11-(2,3-dimethoxyphenyl)-3-(4-chlorophenyl)-2,3,4-trihydro-5H,10H,11H-benzo[b] benzo[2,1-f]1,4-diazepin-1-one "
PRECURSOR_MZ=483.145
COLLISION_ENERGY=205060
PARENT_MASS=482.1377235480092
82.412712 0.00037300680810497253
104.301727 0.0005774972794560711
161.044983 0.0004828403377971239
179.315994 0.00035546941748882554
194.628052 0.000428541878389438
208.875488 0.0015160849349317841
260.836029 0.000371095682204495
270.777252 0.00044180734052216456
297.067627 0.0015606029264958496
323.093903 0.0005234236583896179
332.068115 0.004162319792069502
345.07663 0.003902968765457636
351.076355 0.003286349614627083
429.13559 0.0020764945004541732
451.117096 0.008289002707053628
453.134583 0.003735464201239309
468.122681 0.0017909498070887032
469.128693 0.0014006304467088164
480.404266 0.00187919885602252
483.143616 1.0
485.914429 0.0011882706334145749
501.154938 0.0005547886069915731
END IONS

BEGIN IONS
CHARGE=1+
PRECURSORTYPE=M+Na
FORMULA=C20H21ClN2O3
ONTOLOGY=
INCHIKEY=DKTGAOACMHIWJV-UHFFFAOYSA-N
INCHI=InChI=1S/C20H21ClN2O3/c1-12-14(15-5-4-6-16(21)19(15)23-12)9-10-22-20(24)13-7-8-17(25-2)18(11-13)26-3/h4-8,11,23H,9-10H2,1-3H3,(H,22,24)
SMILES=COc1ccc(C(O)=NCCc2c(C)[nH]c3c(Cl)cccc23)cc1OC
IONMODE=positive
INSTRUMENTTYPE=LC-ESI-Orbitrap
INSTRUMENT=Orbitrap
COMMENT=DB#=CCMSLIB00010122812; origin=GNPS
NUM_PEAKS=11
COMPOUND_NAME="(3,4-dimethoxyphenyl)-N-[2-(7-chloro-2-methylindol-3-yl)ethyl]carboxamide "
PRECURSOR_MZ=395.113
COLLISION_ENERGY=205060
PARENT_MASS=394.1057235480092
56.65324 0.0012112079890128258
66.755852 0.0011878964511407525
100.185402 0.0010792746044602413
100.92495 0.0011035781226672963
104.304741 0.0014522592104134128
113.036331 0.0013322295898806102
114.264702 0.001190872392145698
117.593468 0.00149937827632505
165.055405 0.0017230698418634548
352.628418 0.0013158619143534098
395.112946 1.0
END IONS

BEGIN IONS
CHARGE=1+
PRECURSORTYPE=M+Na
FORMULA=C19H18ClN3O2
ONTOLOGY=
INCHIKEY=ZEVYCQPUTLTHNJ-UHFFFAOYSA-N
INCHI=InChI=1S/C19H18ClN3O2/c1-12-15(16-7-2-3-8-17(16)22-12)9-10-21-19(25)23-18(24)13-5-4-6-14(20)11-13/h2-8,11,22H,9-10H2,1H3,(H2,21,23,24,25)
SMILES=Cc1[nH]c2ccccc2c1CCN=C(O)N=C(O)c1cccc(Cl)c1
IONMODE=positive
INSTRUMENTTYPE=LC-ESI-Orbitrap
INSTRUMENT=Orbitrap
COMMENT=DB#=CCMSLIB00010123383; origin=GNPS
NUM_PEAKS=21
COMPOUND_NAME=(3-chlorophenyl)-N-({[2-(2-methylindol-3-yl)ethyl]amino}carbonyl)carboxamide
PRECURSOR_MZ=378.098
COLLISION_ENERGY=205060
PARENT_MASS=377.09072354800924
52.348671 0.0013108125227840933
55.720089 0.0013221884105557896
61.885841 0.0012177370773793056
73.956352 0.001427156829540078
83.354713 0.0012947828627421578
91.706467 0.0017756726640002275
99.804176 0.0013237396679792028
101.312637 0.0012678944007363303
143.07338 0.0029825509394156412
145.034378 0.0017317203703368555
158.096649 0.02015703895983019
159.099533 0.007791448951996339
178.003021 0.01617237572488967
185.639008 0.001394063337840598
197.104965 0.0863760816788742
222.10083 0.0015952097170765002
223.084213 0.1424659305088383
238.130478 0.0012642748000816996
264.110138 0.001656742928205221
269.044159 0.0023558429403567377
378.097809 1.0
END IONS

BEGIN IONS
CHARGE=1+
PRECURSORTYPE=M+Na
FORMULA=C13H14N2O4S
ONTOLOGY=
INCHIKEY=XSAYHNGEJLPKEX-UHFFFAOYSA-N
INCHI=InChI=1S/C13H14N2O4S/c1-17-9-6-8(7-10(18-2)11(9)19-3)12(16)15-13-14-4-5-20-13/h4-7H,1-3H3,(H,14,15,16)
SMILES=COc1cc(C(O)=Nc2nccs2)cc(OC)c1OC
IONMODE=positive
INSTRUMENTTYPE=LC-ESI-Orbitrap
INSTRUMENT=Orbitrap
COMMENT=DB#=CCMSLIB00010115394; origin=GNPS
NUM_PEAKS=13
COMPOUND_NAME="N-(1,3-thiazol-2-yl)(3,4,5-trimethoxyphenyl)carboxamide "
PRECURSOR_MZ=317.057
COLLISION_ENERGY=205060
PARENT_MASS=316.04972354800924
54.393471 0.0042815952991414
54.474041 0.005191747949305181
63.676701 0.005392483370895189
65.546623 0.005495132166026442
66.770531 0.005223683130012683
106.71228 0.005725521683987701
121.438957 0.0048678339735576705
130.064743 0.01055001505515662
130.128922 0.004979607106033924
144.080872 0.011225216018686642
145.083237 0.006382473972827723
149.023026 0.09263027272644324
317.055542 1.0
END IONS

BEGIN IONS
CHARGE=1+
PRECURSORTYPE=M+Na
FORMULA=C21H14F3NO5
ONTOLOGY=
INCHIKEY=IOIYKTDJCWZSTH-UHFFFAOYSA-N
INCHI=InChI=1S/C21H14F3NO5/c1-28-19(26)16-14(10-5-4-6-11(9-10)21(22,23)24)15-17(30-18(16)25)12-7-2-3-8-13(12)29-20(15)27/h2-9,14H,25H2,1H3
SMILES=COC(=O)C1=C(N)Oc2c(c(=O)oc3ccccc23)C1c1cccc(C(F)(F)F)c1
IONMODE=positive
INSTRUMENTTYPE=LC-ESI-Orbitrap
INSTRUMENT=Orbitrap
COMMENT=DB#=CCMSLIB00010117204; origin=GNPS
NUM_PEAKS=20
COMPOUND_NAME="methyl 2-amino-5-oxo-4-[3-(trifluoromethyl)phenyl]-4H-pyrano[3,2-c]chromene-3- carboxylate "
PRECURSOR_MZ=440.072
COLLISION_ENERGY=205060
PARENT_MASS=439.0647235480092
56.964951 0.003012309839184687
63.74102 0.0016995031790376861
74.931137 0.00939980777260003
82.406563 0.0022501253961537708
88.852867 0.002023151352457064
97.0588 0.0018389100762464658
99.543968 0.0018143912752298463
122.021103 0.09084145722940351
142.065903 0.0017261235915700158
168.964264 0.017673151772779366
208.541412 0.007978417850808
227.067139 0.0032701075184451435
299.049957 0.02041155157774982
317.062469 0.0019474933378914952
319.018768 0.002467992456615733
319.056183 0.016360345112632367
341.038177 0.032688465515357173
408.046326 0.0032869204105708256
430.825256 0.0018192950354331701
440.070526 1.0
END IONS

BEGIN IONS
CHARGE=1+
PRECURSORTYPE=M+Na
FORMULA=C20H20N4O4S
ONTOLOGY=
INCHIKEY=FHZLPXXJDOAZFG-UHFFFAOYSA-N
INCHI=InChI=1S/C20H20N4O4S/c1-11-4-6-13(7-5-11)22-20-23-16(17(21)25)19(29-20)24-18(26)12-8-14(27-2)10-15(9-12)28-3/h4-10H,1-3H3,(H2,21,25)(H,22,23)(H,24,26)
SMILES=COc1cc(OC)cc(C(O)=Nc2sc(Nc3ccc(C)cc3)nc2C(N)=O)c1
IONMODE=positive
INSTRUMENTTYPE=LC-ESI-Orbitrap
INSTRUMENT=Orbitrap
COMMENT=DB#=CCMSLIB00010121011; origin=GNPS
NUM_PEAKS=12
COMPOUND_NAME="5-[(3,5-dimethoxyphenyl)carbonylamino]-2-[(4-methylphenyl)amino]-1,3-thiazole- 4-carboxamide "
PRECURSOR_MZ=435.11
COLLISION_ENERGY=205060
PARENT_MASS=434.10272354800924
74.817291 0.0032141544357067813
80.770767 0.0034587253945696566
89.512077 0.003664222886631954
92.369148 0.004667108534513449
117.822411 0.003971021959288342
118.639374 0.003684483202750772
150.570221 0.0038364355736419074
157.299255 0.0038523543934495504
259.76239 0.0033342691669826312
392.105164 0.005787214582796676
418.082336 0.030863697276145213
435.108856 1.0
END IONS

BEGIN IONS
CHARGE=1+
PRECURSORTYPE=M+Na
FORMULA=C18H16O5
ONTOLOGY=
INCHIKEY=PRWZDYJHEPXPGA-UHFFFAOYSA-N
INCHI=InChI=1S/C18H16O5/c1-20-12-6-4-5-11(9-12)17-18(22-3)16(19)14-10-13(21-2)7-8-15(14)23-17/h4-10H,1-3H3
SMILES=COc1cccc(-c2oc3ccc(OC)cc3c(=O)c2OC)c1
IONMODE=positive
INSTRUMENTTYPE=LC-ESI-Orbitrap
INSTRUMENT=Orbitrap
COMMENT=DB#=CCMSLIB00010115194; origin=GNPS
NUM_PEAKS=13
COMPOUND_NAME="3,6-dimethoxy-2-(3-methoxyphenyl)chromen-4-one "
PRECURSOR_MZ=335.089
COLLISION_ENERGY=205060
PARENT_MASS=334.0817235480092
56.352951 0.0009085995381210848
58.860512 0.0010300095574470095
64.25695 0.00104401840583077
71.785347 0.0012285580431937696
72.784126 0.0010585660560754446
100.270203 0.0009804397862429337
121.770103 0.0010996496979701269
151.373749 0.0010599579608828052
184.871979 0.0010420427990074192
307.874969 0.0011885071048658388
320.06427 0.021076626694453277
335.088745 1.0
353.097595 0.013204058004175534
END IONS

BEGIN IONS
CHARGE=1+
PRECURSORTYPE=M+Na
FORMULA=C14H12FN5O2S
ONTOLOGY=
INCHIKEY=NZFBLPZLGWFCEN-UHFFFAOYSA-N
INCHI=InChI=1S/C14H12FN5O2S/c1-20-12-11(13(22)17-7-16-12)19-14(20)23-6-10(21)18-9-4-2-3-8(15)5-9/h2-5,7H,6H2,1H3,(H,18,21)(H,16,17,22)
SMILES=Cn1c(SCC(O)=Nc2cccc(F)c2)nc2c(O)ncnc21
IONMODE=positive
INSTRUMENTTYPE=LC-ESI-Orbitrap
INSTRUMENT=Orbitrap
COMMENT=DB#=CCMSLIB00010122681; origin=GNPS
NUM_PEAKS=10
COMPOUND_NAME=N-(3-fluorophenyl)-2-(9-methyl-6-oxohydropurin-8-ylthio)acetamide
PRECURSOR_MZ=356.059
COLLISION_ENERGY=205060
PARENT_MASS=355.05172354800925
58.294891 0.001486035523857187
62.448879 0.0016347088759387186
66.74295 0.0017861742158527673
84.005386 0.0016507628059756916
105.05452 0.001643782836394399
145.009186 0.0017617443223182433
203.172333 0.0016486688151013038
204.007904 0.01419446614051656
213.076309 0.0017003205900028688
356.058167 1.0
END IONS

BEGIN IONS
CHARGE=1+
PRECURSORTYPE=M+Na
FORMULA=C26H26N2O3
ONTOLOGY=
INCHIKEY=NQRDCKYGFHPVJS-UHFFFAOYSA-N
INCHI=InChI=1S/C26H26N2O3/c1-18-21(14-15-27-26(29)22-10-6-7-11-25(22)30-2)23-16-20(12-13-24(23)28-18)31-17-19-8-4-3-5-9-19/h3-13,16,28H,14-15,17H2,1-2H3,(H,27,29)
SMILES=COc1ccccc1C(O)=NCCc1c(C)[nH]c2ccc(OCc3ccccc3)cc12
IONMODE=positive
INSTRUMENTTYPE=LC-ESI-Orbitrap
INSTRUMENT=Orbitrap
COMMENT=DB#=CCMSLIB00010117815; origin=GNPS
NUM_PEAKS=22
COMPOUND_NAME=(2-methoxyphenyl)-N-{2-[2-methyl-5-(phenylmethoxy)indol-3-yl]ethyl}carboxamide
PRECURSOR_MZ=437.184
COLLISION_ENERGY=205060
PARENT_MASS=436.17672354800925
56.56768 0.0005504735471520523
63.289341 0.000553971084691317
64.134117 0.0006202299902962764
68.562233 0.0007591599536615137
78.227371 0.000605851224857077
82.410599 0.0006398550620443728
121.143379 0.0006837685889262521
156.041153 0.002226765566665203
170.057602 0.0010556734139347335
174.052338 0.000751193340377633
182.057343 0.17924666150326496
186.052155 0.026113198191073585
195.064896 0.001144277698262773
196.073563 0.0028951838519469045
208.854401 0.0028477727875257605
211.083618 0.004718566755750243
213.099716 0.001452643924641279
251.618317 0.0006559825962532046
317.126068 0.0009843625096619475
345.11972 0.009916684769661894
346.127899 0.5436183735750935
437.18277 1.0
END IONS

BEGIN IONS
CHARGE=1+
PRECURSORTYPE=M+Na
FORMULA=C22H22ClN3O3
ONTOLOGY=
INCHIKEY=DYYXYCYEWPMGMK-UHFFFAOYSA-N
INCHI=InChI=1S/C22H22ClN3O3/c1-3-25(4-2)22(29)18-13-21(28)26(19-11-6-5-10-17(18)19)14-20(27)24-16-9-7-8-15(23)12-16/h5-13H,3-4,14H2,1-2H3,(H,24,27)
SMILES=CCN(CC)C(=O)c1cc(=O)n(CC(O)=Nc2cccc(Cl)c2)c2ccccc12
IONMODE=positive
INSTRUMENTTYPE=LC-ESI-Orbitrap
INSTRUMENT=Orbitrap
COMMENT=DB#=CCMSLIB00010123869; origin=GNPS
NUM_PEAKS=10
COMPOUND_NAME="2-[4-(N,N-diethylcarbamoyl)-2-oxohydroquinolyl]-N-(3-chlorophenyl)acetamide "
PRECURSOR_MZ=434.124
COLLISION_ENERGY=205060
PARENT_MASS=433.11672354800925
57.750401 0.0006337836410397205
59.860851 0.000629053912375245
124.96579 0.0006450448997646622
145.002563 0.0014027023867787417
210.660019 0.0009135133077672731
363.050171 0.00697860203184639
368.420837 0.0007373872213091843
408.648468 0.0008664412462970165
416.112671 0.00365450368141809
434.124084 1.0
END IONS

BEGIN IONS
CHARGE=1+
PRECURSORTYPE=M+Na
FORMULA=C20H11BrO6
ONTOLOGY=
INCHIKEY=HNMJRVNTKFYJEI-UHFFFAOYSA-N
INCHI=InChI=1S/C20H11BrO6/c21-14-4-1-2-5-15(14)27-18-11-25-17-10-12(7-8-13(17)19(18)22)26-20(23)16-6-3-9-24-16/h1-11H
SMILES=O=C(Oc1ccc2c(=O)c(Oc3ccccc3Br)coc2c1)c1ccco1
IONMODE=positive
INSTRUMENTTYPE=LC-ESI-Orbitrap
INSTRUMENT=Orbitrap
COMMENT=DB#=CCMSLIB00010124611; origin=GNPS
NUM_PEAKS=14
COMPOUND_NAME=3-(2-bromophenoxy)-4-oxochromen-7-yl furan-2-carboxylate
PRECURSOR_MZ=448.963
COLLISION_ENERGY=205060
PARENT_MASS=447.95572354800925
64.785744 0.0014358795325226715
73.943039 0.0018300425414504635
84.763733 0.001457840043020077
90.139999 0.001360425470813637
95.01284 0.008995926043757724
101.847809 0.0015248477545378016
104.553368 0.0013835121613365504
116.367447 0.0013176306298443338
199.071991 0.0017528992097031672
208.522659 0.002420723964829398
208.542847 0.003233262853233404
309.803802 0.0017512099396649052
448.962738 1.0
466.972595 0.0034297812676845458
END IONS

BEGIN IONS
CHARGE=1+
PRECURSORTYPE=M+Na
FORMULA=C15H10O3
ONTOLOGY=
INCHIKEY=ISZWRZGKEWQACU-UHFFFAOYSA-N
INCHI=InChI=1S/C15H10O3/c16-11-5-3-4-10(8-11)15-9-13(17)12-6-1-2-7-14(12)18-15/h1-9,16H
SMILES=O=c1cc(-c2cccc(O)c2)oc2ccccc12
IONMODE=positive
INSTRUMENTTYPE=LC-ESI-Orbitrap
INSTRUMENT=Orbitrap
COMMENT=DB#=CCMSLIB00010115883; origin=GNPS
NUM_PEAKS=22
COMPOUND_NAME=3'-Hydroxyflavone
PRECURSOR_MZ=261.052
COLLISION_ENERGY=205060
PARENT_MASS=260.04472354800924
56.96513 0.010237609696858602
61.010979 0.017491923103361364
79.021477 0.017991430469949363
82.391602 0.009971816786197098
84.959686 0.01694658937286621
85.361168 0.01064546433563229
102.803452 0.009976399422587814
104.275322 0.011690305432715441
118.641853 0.01006346951401141
136.194809 0.011671974887152579
176.980499 0.01251059734665353
192.960815 0.016153793277272416
199.301376 0.011378686158146781
208.994003 0.013179662259698004
209.72345 0.016726622826111863
220.274216 0.01005430424122998
237.908615 0.022464083587287766
237.958237 0.0422702380679605
237.985245 0.04613798318172445
261.051849 1.0
261.13092 0.1185482207914213
279.060974 0.022972756226657197
END IONS

BEGIN IONS
CHARGE=1+
PRECURSORTYPE=M+Na
FORMULA=C16H12O2
ONTOLOGY=
INCHIKEY=OPHKKQQCOYMLPW-UHFFFAOYSA-N
INCHI=InChI=1S/C16H12O2/c1-11-6-8-12(9-7-11)16-10-14(17)13-4-2-3-5-15(13)18-16/h2-10H,1H3
SMILES=Cc1ccc(-c2cc(=O)c3ccccc3o2)cc1
IONMODE=positive
INSTRUMENTTYPE=LC-ESI-Orbitrap
INSTRUMENT=Orbitrap
COMMENT=DB#=CCMSLIB00010114944; origin=GNPS
NUM_PEAKS=13
COMPOUND_NAME=4'-Methylflavone
PRECURSOR_MZ=259.073
COLLISION_ENERGY=205060
PARENT_MASS=258.0657235480092
52.707359 0.011805361780677842
70.04055 0.01047457554358325
77.631554 0.010796539955783554
79.021011 0.014595720019747151
104.259193 0.012159522634098177
106.306473 0.011751701045311124
135.493881 0.011590718839210973
136.172287 0.011054111485543798
155.974213 0.015652836506471486
259.072632 1.0
259.169006 0.019865204232758806
259.281921 0.01784756058297023
277.079956 0.04396960655948829
END IONS

BEGIN IONS
CHARGE=1+
PRECURSORTYPE=M+Na
FORMULA=C16H12O4
ONTOLOGY=
INCHIKEY=WHLQVYWQNZFUPW-UHFFFAOYSA-N
INCHI=InChI=1S/C16H12O4/c1-19-11-8-5-9-12-13(11)14(17)15(18)16(20-12)10-6-3-2-4-7-10/h2-9,18H,1H3
SMILES=COc1cccc2oc(-c3ccccc3)c(O)c(=O)c12
IONMODE=positive
INSTRUMENTTYPE=LC-ESI-Orbitrap
INSTRUMENT=Orbitrap
COMMENT=DB#=CCMSLIB00010119187; origin=GNPS
NUM_PEAKS=12
COMPOUND_NAME=3-Hydroxy-5-methoxyflavone
PRECURSOR_MZ=291.063
COLLISION_ENERGY=205060
PARENT_MASS=290.0557235480092
54.3144 0.007829311591092254
61.6973 0.006242401247372458
81.634583 0.0066965954818751575
104.276329 0.006549813198773675
116.71685 0.007325266769875844
125.015038 0.04623918865400646
173.471161 0.006436264640148001
208.621735 0.005857443938861025
291.062317 1.0
291.192383 0.01107236920452311
295.900299 0.006375336145275688
296.564026 0.0055804962348959646
END IONS

BEGIN IONS
CHARGE=1+
PRECURSORTYPE=M+Na
FORMULA=C24H21N3O2
ONTOLOGY=
INCHIKEY=PXHLOLMVLMSNKI-UHFFFAOYSA-N
INCHI=InChI=1S/C24H21N3O2/c28-22(25-16-15-18-9-3-1-4-10-18)17-27-21-14-8-7-13-20(21)26-24(27)23(29)19-11-5-2-6-12-19/h1-14H,15-17H2,(H,25,28)
SMILES=O=C(c1ccccc1)c1nc2ccccc2n1CC(O)=NCCc1ccccc1
IONMODE=positive
INSTRUMENTTYPE=LC-ESI-Orbitrap
INSTRUMENT=Orbitrap
COMMENT=DB#=CCMSLIB00010115364; origin=GNPS
NUM_PEAKS=8
COMPOUND_NAME=2-[2-(phenylcarbonyl)benzimidazolyl]-N-(2-phenylethyl)acetamide
PRECURSOR_MZ=406.153
COLLISION_ENERGY=205060
PARENT_MASS=405.14572354800924
88.168716 0.0020406215253323426
92.371101 0.0024637086683848134
109.456253 0.0021764909737109817
118.646507 0.0027973627568083064
130.055878 0.002339878285052383
209.082581 0.009854834673539254
239.092316 0.0045911834486933745
406.151611 1.0
END IONS

BEGIN IONS
CHARGE=1+
PRECURSORTYPE=M+Na
FORMULA=C38H52ClNO4
ONTOLOGY=
INCHIKEY=HJRJHCRVZOCICT-UHFFFAOYSA-N
INCHI=InChI=1S/C38H52ClNO4/c1-23(41)44-30-14-15-36(6)29(33(30,2)3)13-16-38(8)31(36)28(42)21-24-25-22-35(5,18-17-34(25,4)19-20-37(24,38)7)32(43)40-27-12-10-9-11-26(27)39/h9-12,21,25,29-31H,13-20,22H2,1-8H3,(H,40,43)
SMILES=CC(=O)OC1CCC2(C)C(CCC3(C)C2C(=O)C=C2C4CC(C)(C(O)=Nc5ccccc5Cl)CCC4(C)CCC23C)C1(C)C
IONMODE=positive
INSTRUMENTTYPE=LC-ESI-Orbitrap
INSTRUMENT=Orbitrap
COMMENT=DB#=CCMSLIB00010124622; origin=GNPS
NUM_PEAKS=38
COMPOUND_NAME="17-[N-(2-chlorophenyl)carbamoyl]-1,2,6,6,10,17,20-heptamethyl-12-oxopentacyclo [12.8.0.0<2,11>.0<5,10>.0<15,20>]docos-13-en-7-yl acetate "
PRECURSOR_MZ=644.348
COLLISION_ENERGY=205060
PARENT_MASS=643.3407235480092
67.054817 0.0023447705241801805
69.070183 0.005197456596951657
74.398087 0.0019084023541212707
81.070038 0.013316313085661339
82.403763 0.00229660001190095
90.174652 0.002035912533683939
93.069946 0.011943453485703276
95.085426 0.017434891885535528
105.069893 0.0035724101974140936
107.085403 0.014038870769849793
108.128967 0.0020840830459631695
109.101303 0.004906308353616897
119.085381 0.015156001620796061
121.064537 0.0031721699115646066
121.101044 0.015416689099013071
123.115997 0.0036312065579902127
133.101105 0.00874932348765843
135.079636 0.002266847636669661
135.117035 0.008221573022246275
147.11644 0.0032543431383938817
149.095428 0.0030170325264300265
149.13324 0.0025480784215939907
159.115906 0.0024651968048782563
159.559326 0.0023816067982760625
161.132675 0.0025197428261356197
171.117691 0.00344985874705664
172.949493 0.0025133673171574863
183.116745 0.002237803651324831
187.147217 0.0025608294395502574
189.163254 0.009265739714887238
189.18071 0.002536035793524183
236.239258 0.002604041222624273
523.125549 0.0027244675033223486
584.324646 0.08025986574594872
602.333862 0.003967691754058366
625.349731 0.0035957870636672495
644.346985 1.0
662.358032 0.09288479030242582
END IONS

BEGIN IONS
CHARGE=1+
PRECURSORTYPE=M+Na
FORMULA=C6H10O4
ONTOLOGY=
INCHIKEY=WNLRTRBMVRJNCN-UHFFFAOYSA-N
INCHI=InChI=1S/C6H10O4/c7-5(8)3-1-2-4-6(9)10/h1-4H2,(H,7,8)(H,9,10)
SMILES=O=C(O)CCCCC(=O)O
IONMODE=positive
INSTRUMENTTYPE=LC-ESI-Orbitrap
INSTRUMENT=Orbitrap
COMMENT=DB#=CCMSLIB00010124027; origin=GNPS
NUM_PEAKS=11
COMPOUND_NAME=adipic acid
PRECURSOR_MZ=169.047
COLLISION_ENERGY=205060
PARENT_MASS=168.03972354800925
52.164249 0.0673987941429802
66.733757 0.09328643889367404
71.624077 0.08070150253612786
82.907173 0.07888314671260407
86.956207 0.10077519379844961
86.964523 0.0921140779021916
92.366562 0.10044023351516891
93.305283 0.07594028136663795
110.062286 0.07735189970332089
118.638359 0.1022585893386927
169.046951 1.0
END IONS

BEGIN IONS
CHARGE=1+
PRECURSORTYPE=M+Na
FORMULA=C26H18O6
ONTOLOGY=
INCHIKEY=WFUFWBKEAWXSJX-UHFFFAOYSA-N
INCHI=InChI=1S/C26H18O6/c1-14-10-12-15(13-11-14)20(21-23(27)16-6-2-4-8-18(16)31-25(21)29)22-24(28)17-7-3-5-9-19(17)32-26(22)30/h2-13,20,27-28H,1H3
SMILES=Cc1ccc(C(c2c(O)c3ccccc3oc2=O)c2c(O)c3ccccc3oc2=O)cc1
IONMODE=positive
INSTRUMENTTYPE=LC-ESI-Orbitrap
INSTRUMENT=Orbitrap
COMMENT=DB#=CCMSLIB00010123635; origin=GNPS
NUM_PEAKS=16
COMPOUND_NAME=4-hydroxy-3-[(4-hydroxy-2-oxochromen-3-yl)(4-methylphenyl)methyl]chromen-2-one
PRECURSOR_MZ=449.1
COLLISION_ENERGY=205060
PARENT_MASS=448.09272354800925
56.55447 0.004586790432266127
61.72739 0.005243712112819496
64.73642 0.004755879740574243
69.366783 0.004367168686992368
73.956467 0.00554301962407754
87.466911 0.004821960619683162
118.657883 0.005677124937563287
163.038696 0.004775315293253337
185.020782 1.0
203.031342 0.01211612354014705
226.047211 0.05419603864565295
287.067322 0.38602894731216025
328.094025 0.01018228604857722
344.358063 0.004932743269953996
449.096619 0.03314150442839068
449.203339 0.01087224816868505
END IONS

BEGIN IONS
CHARGE=1+
PRECURSORTYPE=M+Na
FORMULA=C15H10O4
ONTOLOGY=
INCHIKEY=ZQSIJRDFPHDXIC-UHFFFAOYSA-N
INCHI=InChI=1S/C15H10O4/c16-10-3-1-9(2-4-10)13-8-19-14-7-11(17)5-6-12(14)15(13)18/h1-8,16-17H
SMILES=O=c1c(-c2ccc(O)cc2)coc2cc(O)ccc12
IONMODE=positive
INSTRUMENTTYPE=LC-ESI-Orbitrap
INSTRUMENT=Orbitrap
COMMENT=DB#=CCMSLIB00010118667; origin=GNPS
NUM_PEAKS=17
COMPOUND_NAME=daidzein
PRECURSOR_MZ=277.047
COLLISION_ENERGY=205060
PARENT_MASS=276.03972354800925
63.27449 0.0025276235537895933
66.738403 0.0028223641095318427
67.574402 0.0027442132046001854
70.097641 0.0025030618408110722
89.932457 0.0022206021415580833
92.368401 0.0031394334952545653
92.385384 0.0024304931433745337
104.256729 0.00236239021193409
104.277168 0.0031539472347418733
136.202255 0.0029384740254303045
158.84137 0.002372438185425303
210.728851 0.0049056439467100145
223.736816 0.003167344532730157
277.046875 1.0
294.916016 0.0033091326031061638
295.057526 0.011412265003019974
296.152283 0.002585678511738824
END IONS

BEGIN IONS
CHARGE=1+
PRECURSORTYPE=M+Na
FORMULA=C24H21N3O4
ONTOLOGY=
INCHIKEY=CGDWTQJAKSBXSJ-UHFFFAOYSA-N
INCHI=InChI=1S/C24H21N3O4/c1-15-19-6-4-5-7-20(19)24(29)27(26-15)18-11-9-17(10-12-18)25-23(28)16-8-13-21(30-2)22(14-16)31-3/h4-14H,1-3H3,(H,25,28)
SMILES=COc1ccc(C(=O)Nc2ccc(-n3nc(C)c4ccccc4c3=O)cc2)cc1OC
IONMODE=positive
INSTRUMENTTYPE=LC-ESI-Orbitrap
INSTRUMENT=Orbitrap
COMMENT=DB#=CCMSLIB00010120305; origin=GNPS
NUM_PEAKS=12
COMPOUND_NAME="(3,4-dimethoxyphenyl)-N-[4-(4-methyl-1-oxo(2-hydrophthalazin-2-yl))phenyl]carb oxamide "
PRECURSOR_MZ=438.142
COLLISION_ENERGY=205060
PARENT_MASS=437.1347235480092
50.448528 0.0011349661091131788
52.867352 0.0011719939623797012
79.218132 0.0013226016352165671
193.391342 0.001057998099514228
199.306702 0.0011740741788553485
206.776642 0.0012968069509185405
209.007675 0.0010892013466489378
229.020096 0.0012414731926663216
273.350128 0.0010825446539268662
422.106598 0.001133301935932661
423.118164 0.0018031316410910985
438.141785 1.0
END IONS

BEGIN IONS
CHARGE=1+
PRECURSORTYPE=M+Na
FORMULA=C17H12FN5OS
ONTOLOGY=
INCHIKEY=LWSTYEFXLCIYPR-UHFFFAOYSA-N
INCHI=InChI=1S/C17H12FN5OS/c1-2-6-25-17-22-14(20)13-12(9-4-3-5-10(18)7-9)11(8-19)15(21)24-16(13)23-17/h1,3-5,7,12H,6,21H2,(H2,20,22,23)
SMILES=C#CCSc1nc(N)c2c(n1)OC(N)=C(C#N)C2c1cccc(F)c1
IONMODE=positive
INSTRUMENTTYPE=LC-ESI-Orbitrap
INSTRUMENT=Orbitrap
COMMENT=DB#=CCMSLIB00010115991; origin=GNPS
NUM_PEAKS=14
COMPOUND_NAME="4,7-diamino-5-(3-fluorophenyl)-2-prop-2-ynylthio-5H-pyrano[2,3-d]pyrimidine-6- carbonitrile "
PRECURSOR_MZ=376.064
COLLISION_ENERGY=205060
PARENT_MASS=375.05672354800924
53.790749 0.0035650765293575404
58.96104 0.0067779292093526535
61.089699 0.0036999370122215327
71.15403 0.00443452999535128
73.961609 0.004747088996812533
104.298111 0.004402798117030341
109.194397 0.0036793112913129223
162.310349 0.003652339194740124
252.031372 0.005048541840861457
269.601746 0.004286976761158912
331.041382 0.005162776602816839
333.059723 0.01894710454543291
358.05368 0.17466812421761088
376.063934 1.0
END IONS

BEGIN IONS
CHARGE=1+
PRECURSORTYPE=M+Na
FORMULA=C10H17NO5
ONTOLOGY=
INCHIKEY=LLXWDSPVRCKBPZ-UHFFFAOYSA-N
INCHI=InChI=1S/C10H17NO5/c1-3-6(2)9(10(15)16)11-7(12)4-5-8(13)14/h6,9H,3-5H2,1-2H3,(H,11,12)(H,13,14)(H,15,16)
SMILES=CCC(C)C(N=C(O)CCC(=O)O)C(=O)O
IONMODE=positive
INSTRUMENTTYPE=LC-ESI-Orbitrap
INSTRUMENT=Orbitrap
COMMENT=DB#=CCMSLIB00010121957; origin=GNPS
NUM_PEAKS=25
COMPOUND_NAME=2-(3-carboxypropanoylamino)-3-methylpentanoic acid
PRECURSOR_MZ=254.1
COLLISION_ENERGY=205060
PARENT_MASS=253.09272354800925
51.492821 0.0016014496335625924
55.265202 0.0016698413515286903
56.723591 0.0015642066188285785
60.734589 0.0015418608099881702
72.937462 0.0024560075352775992
86.096992 0.0024065758975397263
87.654137 0.0015493094129349731
88.112213 0.008890923335592743
90.602837 0.0017551617125557038
90.947823 0.0033295255172208315
104.320312 0.0016454641055209723
108.078438 0.0030200699220672986
123.005531 0.00597377956333581
123.044296 0.005702921274361164
129.722153 0.0016908328689242253
130.343018 0.00180188476740383
141.015839 0.15793001969816906
154.083817 0.062348192393351244
155.975021 0.0029977241132268903
167.070267 0.076580441187524
173.984283 0.0030627301025808054
190.466049 0.001686092848867169
216.380234 0.001482949132136185
236.089127 0.001896685168544956
254.099777 1.0
END IONS

BEGIN IONS
CHARGE=1+
PRECURSORTYPE=M+Na
FORMULA=C25H18ClNO5
ONTOLOGY=
INCHIKEY=UJGYSWQBRBNTIA-UHFFFAOYSA-N
INCHI=InChI=1S/C25H18ClNO5/c1-29-23-13-16(12-18(14-27)17-7-9-19(26)10-8-17)6-11-22(23)32-25(28)24-15-30-20-4-2-3-5-21(20)31-24/h2-13,24H,15H2,1H3/b18-12+
SMILES=COc1cc(C=C(C#N)c2ccc(Cl)cc2)ccc1OC(=O)C1COc2ccccc2O1
IONMODE=positive
INSTRUMENTTYPE=LC-ESI-Orbitrap
INSTRUMENT=Orbitrap
COMMENT=DB#=CCMSLIB00010126023; origin=GNPS
NUM_PEAKS=19
COMPOUND_NAME="4-[(1Z)-2-(4-chlorophenyl)-2-cyanovinyl]-2-methoxyphenyl 2H,3H-benzo[e]1,4-dio xane-2-carboxylate "
PRECURSOR_MZ=470.077
COLLISION_ENERGY=205060
PARENT_MASS=469.0697235480092
68.928162 0.005403904959325206
73.942787 0.005630000402942374
85.163193 0.005099459609504068
87.66333 0.004911419834614541
104.271446 0.005923252909020089
113.618729 0.006496326508683408
121.489853 0.004900226990871117
123.681763 0.005591944734214732
129.988312 0.006388875208746536
135.044754 0.007890954839114063
136.192719 0.0056501475216805385
140.62413 0.005493447709272599
167.583374 0.006001602815224058
265.961273 0.00718132854578097
339.967773 0.006178449746370161
470.076141 1.0
472.512451 0.008575956876211625
554.366394 0.006100099840166191
575.342041 0.006646310614845293
END IONS

BEGIN IONS
CHARGE=1+
PRECURSORTYPE=M+Na
FORMULA=C6H6N4S
ONTOLOGY=
INCHIKEY=UIJIQXGRFSPYQW-UHFFFAOYSA-N
INCHI=InChI=1S/C6H6N4S/c1-11-6-4-5(8-2-7-4)9-3-10-6/h2-3H,1H3,(H,7,8,9,10)
SMILES=CSc1ncnc2[nH]cnc12
IONMODE=positive
INSTRUMENTTYPE=LC-ESI-Orbitrap
INSTRUMENT=Orbitrap
COMMENT=DB#=CCMSLIB00010115339; origin=GNPS
NUM_PEAKS=82
COMPOUND_NAME=6-(Methylthio)purine
PRECURSOR_MZ=189.021
COLLISION_ENERGY=205060
PARENT_MASS=188.01372354800924
56.965199 0.12498658654362056
56.968239 0.005353459479438662
61.01104 0.009385445108162138
62.01852 0.0023597747334199743
62.990311 0.0038899023500375577
63.519699 0.0027194540822612504
63.691441 0.002637979754623171
66.728706 0.002673748971635011
67.993767 0.0027353515120442902
70.98069 0.012911693751912659
71.95208 0.017589512465572128
72.937477 0.0055183953134377
73.937157 0.002579357982298212
74.975632 0.01091060477797252
76.998642 0.005964516936724255
77.637848 0.0024382682929737333
78.013947 0.003394101258679003
79.021423 0.04256139388664338
84.960068 0.00365938961818348
86.003693 0.005810510585701057
104.480003 0.0021819222377222162
108.99424 0.005617754249581699
110.011528 0.0024233644525521337
113.007103 0.004792081490225068
117.021439 0.002462114437648293
117.999527 0.005925766951628096
119.918694 0.03614081943301817
122.012337 0.009937880793122772
127.004204 0.0636244947598097
131.008698 0.00460628027963579
136.009781 0.5392418118300724
136.511444 0.026068804076100998
137.012085 0.005360414604968742
137.929535 0.01942367842679035
138.013458 0.003850158775579958
140.489426 0.01008890637606165
145.015076 0.6177999546923251
145.51709 0.0437894703373832
146.016693 0.004743395611514508
147.517639 0.02504938139126357
148.000168 0.0315027442938163
149.494232 0.05635539499151475
149.996338 0.0033821781863417233
150.010529 0.003042370624729247
150.031204 0.04505629677321919
154.020264 0.05039982035904345
154.521805 0.003028460373669087
155.939911 0.012283745275482587
156.523209 0.0165303462062771
157.006104 0.17056253055287288
157.020981 0.005801568281448097
157.508102 0.012203264537205947
158.499649 0.4566576448752648
159.001465 0.035481076097022016
159.017487 0.016254128363796784
160.497803 0.00365640885009916
161.002014 0.005312722315619622
166.011398 1.0
166.512924 0.08578948623481299
167.01387 0.0048924340157305065
167.504868 0.26939585792467
168.00679 0.02572800292512708
168.514053 0.017823005965510525
170.007248 0.020742171509421214
173.950348 0.003236120550210045
175.016647 0.2339416087404069
175.518204 0.016811531995564618
177.51944 0.06879811456482773
178.025787 0.2586392594977207
179.013168 0.005975446419700095
179.030029 0.01464749436634832
184.020523 0.0036166652756415606
186.524216 0.0091509580188623
187.035065 0.004723523824285709
189.020218 0.23725026131400206
189.095718 0.003498428141630202
234.819214 0.002686665633333731
253.001999 0.004881504532754667
271.014679 0.0034596781565340426
291.634155 0.0028088771247908495
294.631226 0.0028138450715980493
331.911163 0.0031745180098007655
END IONS

BEGIN IONS
CHARGE=1+
PRECURSORTYPE=M+Na
FORMULA=C6H6N4S
ONTOLOGY=
INCHIKEY=UIJIQXGRFSPYQW-UHFFFAOYSA-N
INCHI=InChI=1S/C6H6N4S/c1-11-6-4-5(8-2-7-4)9-3-10-6/h2-3H,1H3,(H,7,8,9,10)
SMILES=CSc1ncnc2[nH]cnc12
IONMODE=positive
INSTRUMENTTYPE=LC-ESI-Orbitrap
INSTRUMENT=Orbitrap
COMMENT=DB#=CCMSLIB00010115340; origin=GNPS
NUM_PEAKS=10
COMPOUND_NAME=6-(Methylthio)purine
PRECURSOR_MZ=189.021
COLLISION_ENERGY=205060
PARENT_MASS=188.01372354800924
60.529362 0.03889631972372206
73.232147 0.037563242866025776
111.480667 0.03771086547107268
118.63707 0.04378128592709233
144.958511 0.043463673655627776
162.05481 0.07156117614955512
171.055069 0.46059594798316206
189.020615 1.0
189.065002 0.17454360011272999
190.049103 0.039634432748956575
END IONS

BEGIN IONS
CHARGE=1+
PRECURSORTYPE=M+Na
FORMULA=C19H14O4
ONTOLOGY=
INCHIKEY=GZPDVRJCPPBBSD-UHFFFAOYSA-N
INCHI=InChI=1S/C19H14O4/c20-18(12-5-2-1-3-6-12)22-13-9-10-15-14-7-4-8-16(14)19(21)23-17(15)11-13/h1-3,5-6,9-11H,4,7-8H2
SMILES=O=C(Oc1ccc2c3c(c(=O)oc2c1)CCC3)c1ccccc1
IONMODE=positive
INSTRUMENTTYPE=LC-ESI-Orbitrap
INSTRUMENT=Orbitrap
COMMENT=DB#=CCMSLIB00010117774; origin=GNPS
NUM_PEAKS=17
COMPOUND_NAME="4-oxo-1,2,3-trihydrocyclopenta[1,2-c]chromen-7-yl benzoate "
PRECURSOR_MZ=329.078
COLLISION_ENERGY=205060
PARENT_MASS=328.0707235480092
61.988289 0.009373146593997
64.798561 0.009985618538517895
96.808243 0.009024270169902818
98.984039 0.11723798411449349
105.323112 0.009396405022269945
127.071274 0.008214101585061888
174.992065 0.008392416201821134
223.032593 0.050307980354380916
240.080231 0.01621112450624295
241.039627 0.011392753449031092
267.091034 0.03524814804764877
274.068024 0.0830248361249908
300.070709 0.1569866380329572
301.078186 0.057642138069783036
311.726166 0.00990033763485043
329.075165 1.0
347.086365 0.037550732446670364
END IONS

BEGIN IONS
CHARGE=1+
PRECURSORTYPE=M+Na
FORMULA=C13H16O5
ONTOLOGY=
INCHIKEY=BDPRQDJNPJRLOB-UHFFFAOYSA-N
INCHI=InChI=1S/C13H16O5/c1-15-10-7-5-9(6-8-11(14)16-2)12(17-3)13(10)18-4/h5-8H,1-4H3/b8-6+
SMILES=COC(=O)C=Cc1ccc(OC)c(OC)c1OC
IONMODE=positive
INSTRUMENTTYPE=LC-ESI-Orbitrap
INSTRUMENT=Orbitrap
COMMENT=DB#=CCMSLIB00010122449; origin=GNPS
NUM_PEAKS=16
COMPOUND_NAME="methyl (2E)-3-(2,3,4-trimethoxyphenyl)prop-2-enoate "
PRECURSOR_MZ=275.089
COLLISION_ENERGY=205060
PARENT_MASS=274.0817235480092
52.261559 0.0051866715901581996
52.656689 0.004902437128308781
53.49485 0.004268375636490847
65.975517 0.005487911532631088
75.032448 0.00516966610953473
84.959763 0.03581840090177634
88.540733 0.005818303727601353
103.780647 0.005176954172659074
109.44368 0.004700800715201928
121.676933 0.004695942006452365
154.620209 0.005325144789520737
189.552734 0.006309033311307187
210.950165 0.011592879076456642
212.107529 0.007608737901815214
275.088654 1.0
278.202606 0.005832879853850041
END IONS

BEGIN IONS
CHARGE=1+
PRECURSORTYPE=M+Na
FORMULA=C25H21N3O3
ONTOLOGY=
INCHIKEY=RCNBNDFBTBRBPI-UHFFFAOYSA-N
INCHI=InChI=1S/C25H21N3O3/c29-23(27-19-11-5-2-6-12-19)17-28-22-14-8-7-13-20(22)21(15-24(28)30)25(31)26-16-18-9-3-1-4-10-18/h1-15H,16-17H2,(H,26,31)(H,27,29)
SMILES=O=c1cc(C(O)=NCc2ccccc2)c2ccccc2n1CC(O)=Nc1ccccc1
IONMODE=positive
INSTRUMENTTYPE=LC-ESI-Orbitrap
INSTRUMENT=Orbitrap
COMMENT=DB#=CCMSLIB00010123477; origin=GNPS
NUM_PEAKS=25
COMPOUND_NAME=2-{2-oxo-4-[N-benzylcarbamoyl]hydroquinolyl}-N-phenylacetamide
PRECURSOR_MZ=434.147
COLLISION_ENERGY=205060
PARENT_MASS=433.1397235480092
73.947388 0.0013103980164128573
86.408623 0.0017142245308030496
88.371696 0.0014381224186762426
91.054359 0.029716305079789705
104.277901 0.0019821740215087893
111.004433 0.0013821410849182481
116.617233 0.0015778039990238595
120.758217 0.001343008502097126
148.706253 0.0015571506914238227
157.959854 0.0014718199205499868
231.111725 0.0015832390799712375
234.044952 0.0024061103354042802
291.109528 0.0018289047387927272
319.104858 0.0019343453091718622
375.561005 0.001437035402486767
414.145996 0.017139527767556804
416.13266 0.0029479879058578757
423.149933 0.013198007064518215
434.146423 1.0
434.657776 0.008526554990246748
452.158264 0.0023452374287936456
456.125519 0.001965868778666655
474.139038 0.0031882184837319877
475.173462 0.008410244257972856
597.503174 0.0017381388869715131
END IONS

BEGIN IONS
CHARGE=1+
PRECURSORTYPE=M+Na
FORMULA=C20H22N2O2
ONTOLOGY=
INCHIKEY=XIMRYFKXRPRILH-UHFFFAOYSA-N
INCHI=InChI=1S/C20H22N2O2/c1-3-24-19-11-7-5-9-17(19)20(23)21-13-12-15-14(2)22-18-10-6-4-8-16(15)18/h4-11,22H,3,12-13H2,1-2H3,(H,21,23)
SMILES=CCOc1ccccc1C(O)=NCCc1c(C)[nH]c2ccccc12
IONMODE=positive
INSTRUMENTTYPE=LC-ESI-Orbitrap
INSTRUMENT=Orbitrap
COMMENT=DB#=CCMSLIB00010115996; origin=GNPS
NUM_PEAKS=7
COMPOUND_NAME=(2-ethoxyphenyl)-N-[2-(2-methylindol-3-yl)ethyl]carboxamide
PRECURSOR_MZ=345.157
COLLISION_ENERGY=205060
PARENT_MASS=344.1497235480092
54.423328 0.001152656565877001
59.36171 0.0012201097900419202
64.449928 0.0011853912187805647
73.9561 0.0012225896879891598
142.725327 0.0013257534425943304
275.501434 0.0013326971568466016
345.156891 1.0
END IONS

BEGIN IONS
CHARGE=1+
PRECURSORTYPE=M+Na
FORMULA=C20H18N4OS
ONTOLOGY=
INCHIKEY=PLJXLEGHOLUORM-UHFFFAOYSA-N
INCHI=InChI=1S/C20H18N4OS/c1-13-6-8-16(9-7-13)24-18-17(19(25)22-12-21-18)23-20(24)26-11-15-5-3-4-14(2)10-15/h3-10,12H,11H2,1-2H3,(H,21,22,25)
SMILES=Cc1ccc(-n2c(SCc3cccc(C)c3)nc3c(O)ncnc32)cc1
IONMODE=positive
INSTRUMENTTYPE=LC-ESI-Orbitrap
INSTRUMENT=Orbitrap
COMMENT=DB#=CCMSLIB00010120380; origin=GNPS
NUM_PEAKS=17
COMPOUND_NAME=9-(4-methylphenyl)-8-[(3-methylphenyl)methylthio]hydropurin-6-one
PRECURSOR_MZ=385.109
COLLISION_ENERGY=205060
PARENT_MASS=384.1017235480092
53.818508 0.0017100767690433826
66.740662 0.0022938957186010656
90.61869 0.0021418689043094653
92.377007 0.0030459336875228267
105.069557 0.008669126682415085
118.649384 0.0030387371519350584
125.015083 0.004386288440744625
127.01223 0.03569301738143258
130.008224 0.002215633394084088
138.774994 0.002381153712602753
187.995422 0.0024953987150585707
197.266037 0.0023145857584158987
235.77179 0.0021382706365155814
279.030243 0.07518490598625821
280.038452 0.037131424932037714
306.193207 0.0023280792626429636
385.108795 1.0
END IONS

BEGIN IONS
CHARGE=1+
PRECURSORTYPE=M+Na
FORMULA=C14H16N6O4
ONTOLOGY=
INCHIKEY=YXBXIPWDPVPYCY-UHFFFAOYSA-N
INCHI=InChI=1S/C14H16N6O4/c1-2-24-10-6-4-3-5-9(10)7-16-18-11(21)8-15-12-13(22)17-14(23)20-19-12/h3-7H,2,8H2,1H3,(H,15,19)(H,18,21)(H2,17,20,22,23)/b16-7+
SMILES=CCOc1ccccc1C=NN=C(O)CNc1nnc(O)nc1O
IONMODE=positive
INSTRUMENTTYPE=LC-ESI-Orbitrap
INSTRUMENT=Orbitrap
COMMENT=DB#=CCMSLIB00010121454; origin=GNPS
NUM_PEAKS=10
COMPOUND_NAME="N-[(1E)-2-(2-ethoxyphenyl)-1-azavinyl]-2-[(3,5-dioxo(2H,4H-1,2,4-triazin-6-yl) )amino]acetamide "
PRECURSOR_MZ=355.112
COLLISION_ENERGY=205060
PARENT_MASS=354.10472354800925
52.96769 0.003952659667468716
58.697449 0.004666594509986762
61.23584 0.004231572987869352
93.738876 0.0045687667035775835
102.030037 0.004853924352046891
211.493271 0.00578641067696842
218.867767 0.02940245943268198
235.202072 0.004774829529843725
308.898804 0.01017825475193366
355.111847 1.0
END IONS

BEGIN IONS
CHARGE=1+
PRECURSORTYPE=M+Na
FORMULA=C20H20N2O3
ONTOLOGY=
INCHIKEY=YHEPCXKBZQIQES-UHFFFAOYSA-N
INCHI=InChI=1S/C20H20N2O3/c1-13-10-15(16-6-4-5-7-17(16)22-13)12-21-20(23)14-8-9-18(24-2)19(11-14)25-3/h4-11H,12H2,1-3H3,(H,21,23)
SMILES=COc1ccc(C(O)=NCc2cc(C)nc3ccccc23)cc1OC
IONMODE=positive
INSTRUMENTTYPE=LC-ESI-Orbitrap
INSTRUMENT=Orbitrap
COMMENT=DB#=CCMSLIB00010116017; origin=GNPS
NUM_PEAKS=9
COMPOUND_NAME="(3,4-dimethoxyphenyl)-N-[(2-methyl(4-quinolyl))methyl]carboxamide "
PRECURSOR_MZ=359.137
COLLISION_ENERGY=205060
PARENT_MASS=358.1297235480092
66.742523 0.014521459193098036
73.955948 0.01231654645532249
74.513206 0.013314896774847979
89.753593 0.009807323727103343
169.063354 0.013192105024318106
181.381454 0.011312857364034831
297.825867 0.012866439946825833
327.215515 0.014462732703714183
359.136047 1.0
END IONS

BEGIN IONS
CHARGE=1+
PRECURSORTYPE=M+Na
FORMULA=C8H12N4O2S
ONTOLOGY=
INCHIKEY=WZVUIKDWCPCMPC-UHFFFAOYSA-N
INCHI=InChI=1S/C8H12N4O2S/c1-12(2)7(14)4-15-8-10-5(9)3-6(13)11-8/h3H,4H2,1-2H3,(H3,9,10,11,13)
SMILES=CN(C)C(=O)CSc1nc(N)cc(O)n1
IONMODE=positive
INSTRUMENTTYPE=LC-ESI-Orbitrap
INSTRUMENT=Orbitrap
COMMENT=DB#=CCMSLIB00010121379; origin=GNPS
NUM_PEAKS=10
COMPOUND_NAME="2-(6-amino-4-hydroxypyrimidin-2-ylthio)-N,N-dimethylacetamide "
PRECURSOR_MZ=251.057
COLLISION_ENERGY=205060
PARENT_MASS=250.04972354800924
72.12941 0.004726809343299627
84.959671 0.010893000577765878
85.102623 0.005562254776634101
92.384331 0.006617130456314256
98.98394 0.042178922214997354
113.853897 0.004837531027235521
180.374542 0.004881819700809879
202.217194 0.004797268596713378
205.99913 0.9632705977561747
251.056763 1.0
END IONS

BEGIN IONS
CHARGE=1+
PRECURSORTYPE=M+Na
FORMULA=C23H30N2O7
ONTOLOGY=
INCHIKEY=FNGZRVCLYISIFJ-UHFFFAOYSA-N
INCHI=InChI=1S/C23H30N2O7/c1-8-25(9-2)23(27)15-10-16(20(31-6)17(13-15)28-3)24-22(26)14-11-18(29-4)21(32-7)19(12-14)30-5/h10-13H,8-9H2,1-7H3,(H,24,26)
SMILES=CCN(CC)C(=O)c1cc(N=C(O)c2cc(OC)c(OC)c(OC)c2)c(OC)c(OC)c1
IONMODE=positive
INSTRUMENTTYPE=LC-ESI-Orbitrap
INSTRUMENT=Orbitrap
COMMENT=DB#=CCMSLIB00010116619; origin=GNPS
NUM_PEAKS=18
COMPOUND_NAME="{4,5-dimethoxy-3-[(3,4,5-trimethoxyphenyl)carbonylamino]phenyl}-N,N-diethylcar boxamide "
PRECURSOR_MZ=469.194
COLLISION_ENERGY=205060
PARENT_MASS=468.18672354800924
51.041302 0.0010352015908688674
52.791389 0.0009107534794873771
59.176151 0.001314671571099273
63.658279 0.001297446919004949
65.695587 0.0012565383702809298
68.890053 0.0012070174955097486
73.943123 0.0010748182906858124
73.949562 0.0015127550701839981
82.081451 0.0011570660044362092
107.050087 0.0014520381715515062
136.204361 0.0013142409547969149
157.963791 0.0011437168990631082
229.181122 0.0012031419487885256
328.534668 0.0012362994040700992
377.885986 0.0013964886685473117
453.166168 0.006023891453687432
454.170624 0.006314988074081506
469.194031 1.0
END IONS

BEGIN IONS
CHARGE=1+
PRECURSORTYPE=M+Na
FORMULA=C16H11ClO3
ONTOLOGY=
INCHIKEY=AXTXAKVFCNXMHV-UHFFFAOYSA-N
INCHI=InChI=1S/C16H11ClO3/c1-9-13-8-12(18)5-6-14(13)20-16(19)15(9)10-3-2-4-11(17)7-10/h2-8,18H,1H3
SMILES=Cc1c(-c2cccc(Cl)c2)c(=O)oc2ccc(O)cc12
IONMODE=positive
INSTRUMENTTYPE=LC-ESI-Orbitrap
INSTRUMENT=Orbitrap
COMMENT=DB#=CCMSLIB00010118806; origin=GNPS
NUM_PEAKS=22
COMPOUND_NAME=3-(3-chlorophenyl)-6-hydroxy-4-methylchromen-2-one
PRECURSOR_MZ=309.029
COLLISION_ENERGY=205060
PARENT_MASS=308.0217235480092
52.394569 0.010022757493417146
54.18111 0.01013838448075599
61.248539 0.011305165898447971
70.747223 0.013959330835089637
77.872231 0.012803060961701189
86.204437 0.014127515543946138
88.296638 0.011599489138946848
89.322197 0.011862277746535132
98.920143 0.011021354202252623
104.276337 0.012104043265516354
127.01226 0.024665338708236322
130.46138 0.012245949113614027
134.524063 0.01153641987312566
189.668549 0.01181497579716924
202.263748 0.012766270556638828
205.392303 0.010427451949103102
212.318008 0.01509983339202279
267.901031 0.011588977594643318
309.028168 1.0
309.165771 0.01440607146798972
309.203857 0.015052531442656898
327.036591 0.013707053771804884
END IONS

BEGIN IONS
CHARGE=1+
PRECURSORTYPE=M+Na
FORMULA=C17H14O5
ONTOLOGY=
INCHIKEY=KJGPBYUQZLUKLL-UHFFFAOYSA-N
INCHI=InChI=1S/C17H14O5/c1-20-11-5-3-10(4-6-11)13-9-22-15-8-14(18)16(21-2)7-12(15)17(13)19/h3-9,18H,1-2H3
SMILES=COc1ccc(-c2coc3cc(O)c(OC)cc3c2=O)cc1
IONMODE=positive
INSTRUMENTTYPE=LC-ESI-Orbitrap
INSTRUMENT=Orbitrap
COMMENT=DB#=CCMSLIB00010117085; origin=GNPS
NUM_PEAKS=12
COMPOUND_NAME=Afrormosin
PRECURSOR_MZ=321.073
COLLISION_ENERGY=205060
PARENT_MASS=320.0657235480092
54.310188 0.0010027743738791897
54.510632 0.001056073294033634
87.575127 0.0013640750184659533
104.273453 0.001871593939582608
111.868279 0.0010801285588821
112.562088 0.0012107816640394545
133.309265 0.0012022915705635253
217.375 0.001166916181080487
321.07309 1.0
321.236206 0.009756532419421938
338.90564 0.0013569999405693457
339.083008 0.0053086667817546
END IONS

BEGIN IONS
CHARGE=1+
PRECURSORTYPE=M+Na
FORMULA=C17H14O5
ONTOLOGY=
INCHIKEY=NAIAWYFLUAEJDT-UHFFFAOYSA-N
INCHI=InChI=1S/C17H14O5/c1-20-10-7-8-12(14(9-10)21-2)17-16(19)15(18)11-5-3-4-6-13(11)22-17/h3-9,19H,1-2H3
SMILES=COc1ccc(-c2oc3ccccc3c(=O)c2O)c(OC)c1
IONMODE=positive
INSTRUMENTTYPE=LC-ESI-Orbitrap
INSTRUMENT=Orbitrap
COMMENT=DB#=CCMSLIB00010115076; origin=GNPS
NUM_PEAKS=18
COMPOUND_NAME="2',4'-Dimethoxy-3-hydroxyflavone "
PRECURSOR_MZ=321.073
COLLISION_ENERGY=205060
PARENT_MASS=320.0657235480092
58.168362 0.0011859970701002332
66.737167 0.0012905596137201814
92.372818 0.0012490210689944485
104.21814 0.0008579858031280673
104.277733 0.0013084641588605834
106.564583 0.000855837257711219
111.407494 0.0009288878018840595
152.494461 0.0009743653465406807
261.184265 0.000890930166186407
269.043457 0.0009954927098063551
287.021912 0.003352805122991692
306.051239 0.0013682653396295263
315.01651 0.001806210513763761
316.025116 0.005767053989723507
320.06543 0.0011229730712060178
321.072937 1.0
334.032288 0.0011623630705149025
339.083038 0.004431733013152321
END IONS

BEGIN IONS
CHARGE=1+
PRECURSORTYPE=M+Na
FORMULA=C22H22ClFN2O2
ONTOLOGY=
INCHIKEY=OFSGMVBATZQJCH-UHFFFAOYSA-N
INCHI=InChI=1S/C22H22ClFN2O2/c1-15-2-5-19-17(11-22(27)28-21(19)10-15)14-26-8-6-25(7-9-26)13-16-3-4-18(24)12-20(16)23/h2-5,10-12H,6-9,13-14H2,1H3
SMILES=Cc1ccc2c(CN3CCN(Cc4ccc(F)cc4Cl)CC3)cc(=O)oc2c1
IONMODE=positive
INSTRUMENTTYPE=LC-ESI-Orbitrap
INSTRUMENT=Orbitrap
COMMENT=DB#=CCMSLIB00010118177; origin=GNPS
NUM_PEAKS=11
COMPOUND_NAME=4-({4-[(2-chloro-4-fluorophenyl)methyl]piperazinyl}methyl)-7-methylchromen-2-o ne
PRECURSOR_MZ=423.125
COLLISION_ENERGY=205060
PARENT_MASS=422.1177235480092
55.161518 0.060320015610517586
62.107311 0.051636665203180644
70.750977 0.06851553734328504
82.401398 0.058393092345968095
95.681267 0.06149080442948437
104.291847 0.07049124347529148
114.6101 0.060320015610517586
153.525223 0.05449046294941216
179.236053 0.059198009659007754
373.453552 0.06200302453778233
423.123352 1.0
END IONS

BEGIN IONS
CHARGE=1+
PRECURSORTYPE=M+Na
FORMULA=C12H9BrO4
ONTOLOGY=
INCHIKEY=RXGDNKCWEKUYQA-UHFFFAOYSA-N
INCHI=InChI=1S/C12H9BrO4/c1-2-16-11(14)9-6-7-5-8(13)3-4-10(7)17-12(9)15/h3-6H,2H2,1H3
SMILES=CCOC(=O)c1cc2cc(Br)ccc2oc1=O
IONMODE=positive
INSTRUMENTTYPE=LC-ESI-Orbitrap
INSTRUMENT=Orbitrap
COMMENT=DB#=CCMSLIB00010118996; origin=GNPS
NUM_PEAKS=16
COMPOUND_NAME=ethyl 6-bromo-2-oxochromene-3-carboxylate
PRECURSOR_MZ=318.958
COLLISION_ENERGY=205060
PARENT_MASS=317.95072354800925
51.188461 0.0025871056594545198
64.67775 0.002732549907971117
65.956039 0.003103239674101914
66.741257 0.003277000501975725
66.755081 0.002786608832198525
74.637657 0.003325910957229094
89.808952 0.0027531437838672723
97.534607 0.0034172962815182833
102.858139 0.0024442356454249417
121.965919 0.00338769258491756
136.212402 0.0037635308200223956
260.951874 0.003556304943817332
307.240356 0.003231951398452885
310.067017 0.0031843280604430257
318.956818 1.0
319.187195 0.1466657227806881
END IONS

BEGIN IONS
CHARGE=1+
PRECURSORTYPE=M+Na
FORMULA=C10H10N2O
ONTOLOGY=
INCHIKEY=ZOAMBXDOGPRZLP-UHFFFAOYSA-N
INCHI=InChI=1S/C10H10N2O/c11-10(13)5-7-6-12-9-4-2-1-3-8(7)9/h1-4,6,12H,5H2,(H2,11,13)
SMILES=N=C(O)Cc1c[nH]c2ccccc12
IONMODE=positive
INSTRUMENTTYPE=LC-ESI-Orbitrap
INSTRUMENT=Orbitrap
COMMENT=DB#=CCMSLIB00010118515; origin=GNPS
NUM_PEAKS=10
COMPOUND_NAME=indole-3-acetamide
PRECURSOR_MZ=197.069
COLLISION_ENERGY=205060
PARENT_MASS=196.06172354800924
61.111038 0.017472514027520116
92.35743 0.024638499709775444
92.453346 0.01741560725219945
104.263977 0.01870063337240932
136.176834 0.019313803876489535
157.938202 0.018150771655873348
195.673416 0.02347724582588803
197.068512 1.0
197.089096 0.03477146239031219
211.471405 0.01874900413143189
END IONS

BEGIN IONS
CHARGE=1+
PRECURSORTYPE=M+Na
FORMULA=C15H16O5
ONTOLOGY=
INCHIKEY=QJZRVRVZRIXGMR-UHFFFAOYSA-N
INCHI=InChI=1S/C15H16O5/c1-9(2)6-7-19-15-11(18-3)8-10-4-5-12(16)20-14(10)13(15)17/h4-6,8,17H,7H2,1-3H3
SMILES=COc1cc2ccc(=O)oc2c(O)c1OCC=C(C)C
IONMODE=positive
INSTRUMENTTYPE=LC-ESI-Orbitrap
INSTRUMENT=Orbitrap
COMMENT=DB#=CCMSLIB00010121580; origin=GNPS
NUM_PEAKS=23
COMPOUND_NAME=Capensine
PRECURSOR_MZ=299.089
COLLISION_ENERGY=205060
PARENT_MASS=298.0817235480092
50.460388 0.002838123612129828
57.251949 0.002767548602236724
63.318359 0.003361134846159081
66.326157 0.0029023972818539045
69.070412 0.018530981169075037
73.942398 0.0033623951141928867
78.879868 0.0033145049289082804
81.657341 0.0026881517161069816
82.386337 0.004415979190454226
83.457169 0.0033107241248068638
84.044769 0.0033006419805364203
92.362373 0.00476759397188594
93.353973 0.0029717120237132033
101.002876 0.004554608674172823
212.009048 0.004452526963434583
230.018478 0.9517115700167111
231.026245 1.0
248.028809 0.035208108060422294
249.036346 0.02370690198391394
271.045349 0.019051471867036682
272.050751 0.023631285901885613
298.920624 0.004027816636042154
299.084015 0.08011019783687595
END IONS

BEGIN IONS
CHARGE=1+
PRECURSORTYPE=M+Na
FORMULA=C43H58N4O12
ONTOLOGY=
INCHIKEY=JQXXHWHPUNPDRT-UHFFFAOYSA-N
INCHI=InChI=1S/C43H58N4O12/c1-21-12-11-13-22(2)42(55)45-33-28(20-44-47-17-15-46(9)16-18-47)37(52)30-31(38(33)53)36(51)26(6)40-32(30)41(54)43(8,59-40)57-19-14-29(56-10)23(3)39(58-27(7)48)25(5)35(50)24(4)34(21)49/h11-14,19-21,23-25,29,34-35,39,49-53H,15-18H2,1-10H3,(H,45,55)/b12-11+,19-14+,22-13+,44-20+
SMILES=COC1C=COC2(C)Oc3c(C)c(O)c4c(O)c(c(C=NN5CCN(C)CC5)c(O)c4c3C2=O)N=C(O)C(C)=CC=CC(C)C(O)C(C)C(O)C(C)C(OC(C)=O)C1C
IONMODE=positive
INSTRUMENTTYPE=LC-ESI-Orbitrap
INSTRUMENT=Orbitrap
COMMENT=DB#=CCMSLIB00010119724; origin=GNPS
NUM_PEAKS=123
COMPOUND_NAME=Rifampicin
PRECURSOR_MZ=845.394
COLLISION_ENERGY=205060
PARENT_MASS=844.3867235480093
59.049469 0.00867469902386503
64.092018 0.0020356905427701432
65.038818 0.010878369625409215
67.05455 0.07643187578206817
67.058617 0.002521124441430716
69.033737 0.00990465470844783
69.070267 0.024748587472768487
70.065483 0.04372701247465471
71.049629 0.0031375258435422343
72.081093 0.009162031002285763
72.276848 0.0018866912815976896
73.757927 0.0017305742213246415
76.243881 0.001701628504982222
79.05439 0.035765042400729245
81.07003 0.036771024673613324
82.052597 0.004410188322728603
83.010323 0.001974477470505027
83.049103 0.008262815715910607
83.060448 0.011853033582250677
84.068283 0.00413591579738568
84.08075 0.004854813506545765
85.064697 0.004293456417478847
85.076286 0.004016336772495685
87.044167 0.01777361887412552
91.054237 0.0475317133538927
92.365334 0.0027090343376864213
93.069847 0.048355954489741594
95.049232 0.03492988730625944
95.085533 0.18874030615077492
97.028137 0.001973053910684908
97.065201 0.019080921308934785
97.075897 0.09291290233952566
98.083847 0.04549270117154228
99.080383 0.0026231462285392425
99.09156 0.06505953089907768
101.107162 0.010595555741145577
103.053673 0.0022126864804049365
104.269188 0.002489806125388098
105.069717 0.04532614467258836
107.048882 0.002618401029138846
107.085403 0.06365779899620051
109.026138 0.003192570156586835
109.064613 0.044743434186219656
109.101067 0.013499143254248258
111.080429 0.014368463784400915
112.086891 0.0072995402376300955
115.053757 0.0024499464504247667
117.069687 0.0032770347059138945
119.085243 0.025293336363934018
121.064659 0.013306488158592157
121.101051 0.014589590076459397
123.080276 0.05763281931751695
123.116539 0.003341094897819249
125.096207 0.008951344148908153
129.069122 0.002223125919085809
130.077454 0.0033145217811770275
133.06459 0.0026288404678197186
133.100845 0.008356770664038459
135.08017 0.021315910226521583
135.116058 0.0035365971131155888
145.062302 0.0090823116523591
145.101486 0.014528851524134322
147.116745 0.01012815360020651
149.095703 0.00387018463096347
151.075394 0.021438810890991856
153.091141 0.00230521786871267
154.543442 0.0018957071604584431
157.101471 0.0029220937907642286
161.09552 0.00488945346216866
162.088425 0.003879675029764263
163.111176 0.012871827893515828
173.09465 0.002521124441430716
175.073074 0.004381242606386184
177.088303 0.003927601543708269
179.104385 0.0025643057559743246
190.08345 0.06534614094286163
205.119766 0.0034136964486453166
207.099182 0.0037899907610967672
233.114395 0.0023365361847552876
237.892944 0.002313759227633384
248.125168 0.007315673915591444
262.302429 0.0020727030980932366
265.141815 0.0026326366273400357
279.027405 0.009999558696455763
295.047058 0.0029054855928628406
307.044067 0.015764501447997598
308.056885 0.0024807902465273446
309.058624 0.002774992609351934
318.203522 0.004033419490337113
320.03894 0.019934582681066133
321.04837 0.03190909336796696
322.055878 0.02160252027030554
322.09259 0.0023175553871537012
325.084442 0.0049183991785110796
364.128418 0.002334638104995129
372.215515 0.013730708984987613
398.088074 0.00286420235807939
400.078857 0.0036832237745878437
404.122284 0.002802989285814274
404.240906 0.0028295624024564947
410.31427 0.0026179265091988064
420.14151 0.004337112251962496
428.109467 0.0024618094489257582
432.234802 0.00892904171172629
443.114014 0.0024262204534227835
455.11734 0.0033429929775794075
464.266266 0.015594148789523359
543.218811 0.007378310547676679
653.246826 0.004124052798884688
685.271606 0.011398917999632722
699.331177 0.00224969903572803
702.620789 0.002149100808439622
713.265137 0.02074790985829411
730.282471 0.04587231712357401
732.300354 0.003211076434248382
745.293518 0.14008303149910814
747.307434 0.004142084556606195
753.348694 0.04411564430554719
785.374817 0.028149471883032733
786.374146 0.004402596003687969
813.367065 0.5167934979379736
827.380493 0.007566694963872424
845.393066 1.0
END IONS

BEGIN IONS
CHARGE=1+
PRECURSORTYPE=M+Na
FORMULA=C16H12O2
ONTOLOGY=
INCHIKEY=NOQJBXPAMJLUSS-UHFFFAOYSA-N
INCHI=InChI=1S/C16H12O2/c1-11-7-8-15-13(9-11)14(17)10-16(18-15)12-5-3-2-4-6-12/h2-10H,1H3
SMILES=Cc1ccc2oc(-c3ccccc3)cc(=O)c2c1
IONMODE=positive
INSTRUMENTTYPE=LC-ESI-Orbitrap
INSTRUMENT=Orbitrap
COMMENT=DB#=CCMSLIB00010115747; origin=GNPS
NUM_PEAKS=10
COMPOUND_NAME=6-Methylflavone
PRECURSOR_MZ=259.073
COLLISION_ENERGY=205060
PARENT_MASS=258.0657235480092
50.380402 0.008542694221168943
51.987381 0.0097618568916913
53.09164 0.009128747855770917
73.937866 0.008782248991517194
79.015831 0.0077940855638306515
118.750237 0.00865391607883063
144.420914 0.009624968451492298
188.282013 0.009637801742760955
259.072571 1.0
277.082703 0.01852699482818362
END IONS

BEGIN IONS
CHARGE=1+
PRECURSORTYPE=M+Na
FORMULA=C23H19NO5
ONTOLOGY=
INCHIKEY=YMTGHURFTMANKP-UHFFFAOYSA-N
INCHI=InChI=1S/C23H19NO5/c1-28-23-14-8-17(7-13-22(25)18-5-3-2-4-6-18)15-19(23)16-29-21-11-9-20(10-12-21)24(26)27/h2-15H,16H2,1H3/b13-7+
SMILES=COc1ccc(C=CC(=O)c2ccccc2)cc1COc1ccc([N+](=O)[O-])cc1
IONMODE=positive
INSTRUMENTTYPE=LC-ESI-Orbitrap
INSTRUMENT=Orbitrap
COMMENT=DB#=CCMSLIB00010122191; origin=GNPS
NUM_PEAKS=10
COMPOUND_NAME=(2E)-3-{4-methoxy-3-[(4-nitrophenoxy)methyl]phenyl}-1-phenylprop-2-en-1-one
PRECURSOR_MZ=412.116
COLLISION_ENERGY=205060
PARENT_MASS=411.1087235480092
66.743912 0.010409174324260737
69.452026 0.007306924436855939
92.380867 0.011067940280849405
104.289749 0.009421025389377734
121.98571 0.008211047101765897
134.896225 0.00780099890429744
162.892197 0.009158863427061837
165.136429 0.008167353441379912
366.121521 0.06297936987019621
412.114868 1.0
END IONS

BEGIN IONS
CHARGE=1+
PRECURSORTYPE=M+Na
FORMULA=C16H13N3O2S
ONTOLOGY=
INCHIKEY=KDRIURZVJMYZNJ-UHFFFAOYSA-N
INCHI=InChI=1S/C16H13N3O2S/c20-14(17-11-6-2-1-3-7-11)10-22-16-18-13-9-5-4-8-12(13)15(21)19-16/h1-9H,10H2,(H,17,20)(H,18,19,21)
SMILES=OC(CSc1nc(O)c2ccccc2n1)=Nc1ccccc1
IONMODE=positive
INSTRUMENTTYPE=LC-ESI-Orbitrap
INSTRUMENT=Orbitrap
COMMENT=DB#=CCMSLIB00010120470; origin=GNPS
NUM_PEAKS=36
COMPOUND_NAME=2-(4-hydroxyquinazolin-2-ylthio)-N-phenylacetamide
PRECURSOR_MZ=334.062
COLLISION_ENERGY=205060
PARENT_MASS=333.05472354800924
54.200169 0.003036098985567604
64.058311 0.002892134935447548
82.387573 0.004267505771415938
89.548347 0.002884422575619688
101.209084 0.003326597872417002
104.272789 0.0033921529309538134
104.399788 0.00300010797303759
115.092484 0.00300396415295152
118.63578 0.003261042813880191
136.195862 0.0033895821443445267
160.732346 0.0031852046089062332
213.009567 0.0027635956049832126
237.08078 0.0029461214542425692
241.003876 0.04102461271099731
244.093475 0.012001717285455004
245.102448 0.005911523808054789
248.088806 0.005822831670034397
258.0784 0.004649267582895014
259.08078 0.020810517602175914
262.104279 0.004663406909246091
273.098511 0.005363946260276719
275.081818 0.005217411423547377
276.084351 0.02607291779138581
287.077789 0.012889924058963562
288.083008 0.02066012658553264
289.097443 0.003326597872417002
290.099792 0.0499336737054804
291.108063 0.01395422971520826
301.090851 0.01122276894284113
302.100128 0.029389232517365662
303.070526 0.014497951083072398
304.079559 0.012591712812286304
318.093964 0.040464181230172806
319.101257 0.005270112549037755
334.060791 1.0
334.125641 0.1930339395248158
END IONS

BEGIN IONS
CHARGE=1+
PRECURSORTYPE=M+Na
FORMULA=C17H19N5O2S
ONTOLOGY=
INCHIKEY=URUVXKGMWRRULO-UHFFFAOYSA-N
INCHI=InChI=1S/C17H19N5O2S/c1-3-11-6-5-7-12(8-11)20-13(23)9-25-17-21-14-15(22(17)4-2)18-10-19-16(14)24/h5-8,10H,3-4,9H2,1-2H3,(H,20,23)(H,18,19,24)
SMILES=CCc1cccc(N=C(O)CSc2nc3c(O)ncnc3n2CC)c1
IONMODE=positive
INSTRUMENTTYPE=LC-ESI-Orbitrap
INSTRUMENT=Orbitrap
COMMENT=DB#=CCMSLIB00010120872; origin=GNPS
NUM_PEAKS=82
COMPOUND_NAME=2-(9-ethyl-6-oxohydropurin-8-ylthio)-N-(3-ethylphenyl)acetamide
PRECURSOR_MZ=380.115
COLLISION_ENERGY=205060
PARENT_MASS=379.10772354800923
64.720123 0.0003487464871863016
65.058823 0.00036093171257383624
71.099777 0.000300983961397206
92.36544 0.00035737398253368014
95.068283 0.0004066485435898421
115.054024 0.0005991217387622871
117.069519 0.00041634335794926746
117.700798 0.0003714270161922967
118.064911 0.0064132531136363875
118.07341 0.0004280838670817826
119.068367 0.003443882678871104
130.064926 0.0041911838738058925
131.068222 0.003479193149519653
142.064758 0.0004666852380174763
143.070526 0.0007841237008504043
144.044952 0.00035274893348147723
144.080658 0.0056038695295008755
145.084274 0.004217155303099032
146.059998 0.012290623139974264
147.063278 0.008694825388388495
162.05484 0.001897070600662236
163.058228 0.000818989455243934
170.059753 0.0014854412350161752
171.063553 0.0015115905508113225
174.054474 0.0006330091173947739
175.060028 0.0004443604820154968
177.040756 0.0004795820094130421
184.072861 0.001506609728755104
187.059448 0.002652999290944403
188.070541 0.001986369624670154
189.074051 0.0018570461377104797
190.049805 0.00244211484281415
191.054047 0.0026327202297155134
192.064789 0.0067230424568829805
193.04921 0.0016710657998613198
193.069183 0.005817244388659238
194.051895 0.000915581825834172
207.084778 0.00060739346110565
208.828781 0.0014760132504097615
217.015625 0.00256085408290436
218.022949 0.02705947208267026
227.053375 0.0021565180638406195
231.031982 0.0016659960345540973
243.089661 0.0004831397394531982
244.095627 0.003784891103220066
245.103149 0.004921496907798936
246.109146 0.0006151315239429895
247.09053 0.0004565457074030314
248.090302 0.0022282063241497647
258.077667 0.0016587916312227812
259.025391 0.008978109642835923
259.081177 0.008727645448008935
261.101379 0.0006117516804048412
262.105743 0.0030081496922029854
271.083801 0.0006077492341096656
272.089844 0.004691311774200836
273.097076 0.006229051640807306
274.104309 0.0017899829264535372
275.080017 0.004078137001779932
276.083771 0.012522676081843445
277.066925 0.0005330369032663875
286.072876 0.0005035966871840958
287.078217 0.00992366534425841
288.084198 0.016085209057553753
289.09494 0.0034461062601462015
290.10022 0.027033856426381137
291.108063 0.012795198202919402
300.085938 0.002685018861305808
301.09314 0.013415132662416602
302.099854 0.030595233139828395
303.195435 0.0005917394489289632
304.0784 0.008494258357374693
306.13092 0.008778076271328147
317.09259 0.0027179278641772516
318.094635 0.02598797273782625
319.101227 0.004649330559726994
332.111328 0.002374784801804196
333.121979 0.005271132827495276
334.125763 0.09786817258263807
336.141266 0.0006103285883887788
338.483215 0.0004212352367544821
380.114624 1.0
END IONS

BEGIN IONS
CHARGE=1+
PRECURSORTYPE=M+Na
FORMULA=C26H44O5
ONTOLOGY=
INCHIKEY=FPDXMWHJGOCDQJ-UHFFFAOYSA-N
INCHI=InChI=1S/C26H44O5/c1-5-31-23(30)9-6-15(2)18-7-8-19-24-20(14-22(29)26(18,19)4)25(3)11-10-17(27)12-16(25)13-21(24)28/h15-22,24,27-29H,5-14H2,1-4H3/t15-,16+,17-,18-,19+,20+,21-,22+,24+,25+,26-/m1/s1
SMILES=CCOC(=O)CCC(C)C1CCC2C3C(O)CC4CC(O)CCC4(C)C3CC(O)C12C
IONMODE=positive
INSTRUMENTTYPE=LC-ESI-Orbitrap
INSTRUMENT=Orbitrap
COMMENT=DB#=CCMSLIB00010124921; origin=GNPS
NUM_PEAKS=132
COMPOUND_NAME="ethyl 4-((1S,2S,7S,11S,16S,5R,9R,10R,14R,15R)-5,9,16-trihydroxy-2,15-dimethylt etracyclo[8.7.0.0<2,7>.0<11,15>]heptadec-14-yl)pentanoate "
PRECURSOR_MZ=459.308
COLLISION_ENERGY=205060
PARENT_MASS=458.3007235480092
65.038857 0.0003558975425077461
68.964127 0.00024710474549324434
72.807693 0.0002421015706826693
77.009277 0.0002614883479713374
79.054367 0.0002571152959328751
91.054321 0.03680977275722838
92.0495 0.002622671797176687
92.373138 0.00028949940560098826
93.057381 0.005663858537135202
94.368782 0.0002230802646018266
102.046211 0.0012083108253479135
103.0541 0.0010379256277686334
107.049057 0.004478437971688903
107.057037 0.00032114417121648916
107.060638 0.0005196958567092078
108.067749 0.00029023454883511977
108.080399 0.00040343820525441063
109.076233 0.0003659374986767422
115.053902 0.0014221450884736061
116.049622 0.001031729420509525
117.057159 0.001645351377629855
117.069687 0.0014888750900403434
118.644302 0.0002617235938062595
119.060417 0.005111077034071595
119.085403 0.004404020472302391
123.998497 0.0002835678499061672
125.015099 0.011892525520644402
125.025482 0.00041932149993013197
128.061996 0.0012575528195792824
129.044189 0.0003843496860778759
129.069595 0.0028294066770699097
130.065094 0.01236235766198709
130.076157 0.0005792466594923408
131.048935 0.005694280864572804
131.060211 0.002057880154076612
132.05687 0.0009045832475526199
132.068024 0.0031360496228908445
132.080505 0.003327674158708804
133.075882 0.04345930294105015
137.015091 0.012068825470644579
139.029892 0.00023840905123808875
140.049011 0.00045112589664790146
142.052734 0.00033294427032892006
142.065247 0.00033225113527959605
143.04866 0.0012327301831765217
143.060532 0.0003249585143970115
145.064484 0.009202304562297231
145.075836 0.0013744069872583461
147.080215 0.006158173048583709
149.014618 0.0018152870876316947
149.107208 0.10760305800765732
151.030869 0.0012171745523422992
154.704651 0.0002661638589404138
155.060562 0.0003882480456280133
156.068268 0.002607578256375347
157.075958 0.17939371838506019
157.965973 0.00022514286647587557
158.083572 0.002462225736122865
159.055588 0.0005381374498397069
159.091553 0.0032333993903637796
160.074265 0.0007739461944382104
163.030334 0.0009673392748365663
165.010025 0.05867545723220639
166.065063 0.0011209758091330901
167.073212 0.00031287275962788946
169.076981 0.00029388926091337357
170.083664 0.0013721049387308945
171.04364 0.017086766158179435
171.059235 0.0006227377332235609
171.079544 0.0011605055110369617
172.099762 0.0003323057459198458
173.059937 0.00029154100338263345
174.078873 0.0009943757425786828
175.086411 0.0014133317713009895
177.065109 0.000498767379038104
182.083572 0.0009878602731150372
183.091522 0.023362914992976568
184.064178 0.000300896226139267
184.423019 0.0003308186561776598
185.070724 0.3136957839846383
187.086212 0.00028239162073155676
194.060455 0.0003709112677579519
197.070831 0.0004924577496800153
198.078491 0.00464265636773844
199.075272 0.0010761572767619527
208.088287 0.0015210785645137842
209.107468 0.0003443746974150448
211.086258 0.03312579777743768
219.0914 0.000381102453392255
232.086304 0.00037399046770434275
237.100769 0.0016867840503055071
241.04039 0.0005010862308394788
243.057236 0.0021990108517559387
245.106812 0.0011830008940013857
246.114761 0.00032975584910202967
255.067291 0.004484592170763204
258.103149 0.0004224637121537341
259.122253 0.0003769814504626378
261.103333 0.0004113273423612619
266.068878 0.00025988363531169033
267.056366 0.010164266789478436
269.074677 0.001180106530068148
270.117523 0.0008476243497721106
273.101685 0.0003005097508390379
279.069183 0.0004145955791392866
279.114227 0.0003033831106798719
281.083496 0.006767753818325556
287.115845 0.00244363711434554
288.124756 0.0025387898537530414
291.059814 0.0005250729043645698
295.098907 0.0012409259800324679
297.079163 0.004509696262004175
305.083344 0.007645119962941388
306.067047 0.00038471935810418205
308.073273 0.0005529201300734713
309.067322 0.008420637263491399
309.104675 0.0004352930117939491
311.082825 0.021540940202323517
321.560211 0.00033067582834931427
321.601654 0.0010672893489490863
322.087738 0.0009045202352754087
323.093872 1.0
324.096375 0.0005756507588728176
324.598419 0.0009738211377523659
325.110504 0.001164756739339482
353.140961 0.0004070004993260879
365.14151 0.001575206110638267
399.125275 0.0014987050052853018
417.07132 0.00039865767382331547
417.135864 0.015437323183349326
459.182587 0.08860730130481455
459.300018 0.02117538497812852
END IONS

BEGIN IONS
CHARGE=1+
PRECURSORTYPE=M+Na
FORMULA=C26H29N3O4
ONTOLOGY=
INCHIKEY=RIOFFQYFQSEETA-UHFFFAOYSA-N
INCHI=InChI=1S/C26H29N3O4/c1-2-32-21-7-8-24-22(16-21)20(15-26(31)33-24)17-27-11-13-28(14-12-27)18-25(30)29-10-9-19-5-3-4-6-23(19)29/h3-8,15-16H,2,9-14,17-18H2,1H3
SMILES=CCOc1ccc2oc(=O)cc(CN3CCN(CC(=O)N4CCc5ccccc54)CC3)c2c1
IONMODE=positive
INSTRUMENTTYPE=LC-ESI-Orbitrap
INSTRUMENT=Orbitrap
COMMENT=DB#=CCMSLIB00010118875; origin=GNPS
NUM_PEAKS=10
COMPOUND_NAME=6-ethoxy-4-{[4-(2-indolinyl-2-oxoethyl)piperazinyl]methyl}chromen-2-one
PRECURSOR_MZ=470.205
COLLISION_ENERGY=205060
PARENT_MASS=469.1977235480092
56.00222 0.0017779027681734216
61.36525 0.0015788598436036272
62.126221 0.0016835178974903256
62.658691 0.001707916707598881
108.251862 0.0018215637967887314
126.10276 0.0018517412724493132
183.087738 0.0016443513865265918
244.289001 0.0017958808387797257
266.126831 0.008055459779524647
470.204834 1.0
END IONS

BEGIN IONS
CHARGE=1+
PRECURSORTYPE=M+Na
FORMULA=C15H10O5
ONTOLOGY=
INCHIKEY=PVFGJHYLIHMCQD-UHFFFAOYSA-N
INCHI=InChI=1S/C15H10O5/c16-9-2-3-10-12(18)7-14(20-15(10)6-9)8-1-4-11(17)13(19)5-8/h1-7,16-17,19H
SMILES=O=c1cc(-c2ccc(O)c(O)c2)oc2cc(O)ccc12
IONMODE=positive
INSTRUMENTTYPE=LC-ESI-Orbitrap
INSTRUMENT=Orbitrap
COMMENT=DB#=CCMSLIB00010120231; origin=GNPS
NUM_PEAKS=16
COMPOUND_NAME="7,3',4'-Trihydroxyflavone "
PRECURSOR_MZ=293.042
COLLISION_ENERGY=205060
PARENT_MASS=292.0347235480092
55.819569 0.02281984042849969
67.221573 0.02135059234875114
92.393997 0.020876341386300658
97.370178 0.021722553887927987
104.304871 0.022754747159143746
117.19278 0.02066246350127397
118.674812 0.021703955810969146
139.653641 0.020420688500809015
158.001434 0.02256876638955532
163.02858 0.02959883947999777
207.054596 0.022671055812828952
233.071777 0.02294072792873217
278.837769 0.019100225036731203
293.041748 1.0
293.139465 0.4584797931893842
293.174591 0.039595305845375586
END IONS

BEGIN IONS
CHARGE=1+
PRECURSORTYPE=M+Na
FORMULA=C19H19N3O4S
ONTOLOGY=
INCHIKEY=OWBQCPZBRPKYKE-UHFFFAOYSA-N
INCHI=InChI=1S/C19H19N3O4S/c1-24-13-7-5-12(6-8-13)21-19-22-18(20)17(27-19)16(23)11-4-9-14(25-2)15(10-11)26-3/h4-10H,20H2,1-3H3,(H,21,22)
SMILES=COc1ccc(N=c2[nH]c(N)c(C(=O)c3ccc(OC)c(OC)c3)s2)cc1
IONMODE=positive
INSTRUMENTTYPE=LC-ESI-Orbitrap
INSTRUMENT=Orbitrap
COMMENT=DB#=CCMSLIB00010117272; origin=GNPS
NUM_PEAKS=15
COMPOUND_NAME="4-amino-2-[(4-methoxyphenyl)amino](1,3-thiazol-5-yl) 3,4-dimethoxyphenyl keton e "
PRECURSOR_MZ=408.099
COLLISION_ENERGY=205060
PARENT_MASS=407.0917235480092
50.967339 0.011540838471377858
60.541168 0.011928886589344486
85.68486 0.013581684128831975
90.827583 0.011588745646435467
92.381523 0.015363831040975006
129.1371 0.010506043490133517
136.650009 0.011804327934194704
141.120285 0.01064018358029482
145.38887 0.013830801439131539
157.976425 0.012398376904909048
228.646423 0.011052185285790253
356.025116 0.011785165064171661
408.098694 1.0
419.396759 0.013045123768186761
426.107819 0.01938803374581411
END IONS

BEGIN IONS
CHARGE=1+
PRECURSORTYPE=M+Na
FORMULA=C20H20O7S
ONTOLOGY=
INCHIKEY=IKYNGNXORONYOJ-UHFFFAOYSA-N
INCHI=InChI=1S/C20H20O7S/c1-23-16-12-9-27-20(22)15(12)13(17(24-2)18(16)25-3)10-28-14-8-6-5-7-11(14)19(21)26-4/h5-8H,9-10H2,1-4H3
SMILES=COC(=O)c1ccccc1SCc1c(OC)c(OC)c(OC)c2c1C(=O)OC2
IONMODE=positive
INSTRUMENTTYPE=LC-ESI-Orbitrap
INSTRUMENT=Orbitrap
COMMENT=DB#=CCMSLIB00010119328; origin=GNPS
NUM_PEAKS=24
COMPOUND_NAME="methyl 2-[(5,6,7-trimethoxy-3-oxohydroisobenzofuran-4-yl)methylthio]benzoate "
PRECURSOR_MZ=427.082
COLLISION_ENERGY=205060
PARENT_MASS=426.0747235480092
52.767639 0.0006296545671785747
81.801292 0.0007546241759315743
82.408569 0.0007840641318397329
83.665604 0.0005479436691477673
92.953781 0.0006711108316206756
104.297531 0.0009733209912493236
118.670807 0.0006536871842464593
136.22287 0.0008193119702059635
165.258682 0.0006382662549612334
167.52417 0.0005918031952966566
190.005264 0.007068593495091538
193.04921 0.00914120644538768
220.664749 0.0008229168627661462
222.052063 0.004168257158615673
229.045197 0.0010900794558374627
237.07608 0.002132293949348055
245.040222 0.001989099605985243
260.065308 0.003354953342676681
292.054596 0.0012921537110165916
357.94165 0.0005713754707889547
383.968292 0.0006763178986520505
395.054779 0.005597797330537005
412.057526 0.0009921465412858332
427.081604 1.0
END IONS

BEGIN IONS
CHARGE=1+
PRECURSORTYPE=M+Na
FORMULA=C30H36O7
ONTOLOGY=
INCHIKEY=MEDVHSNRBPAIPU-UHFFFAOYSA-N
INCHI=InChI=1S/C30H36O7/c1-17-11-23-28(34,26(17)33)15-21(16-36-19(3)31)12-22-25-27(4,5)29(25,14-18(2)30(22,23)35)37-24(32)13-20-9-7-6-8-10-20/h6-12,18,22-23,25,34-35H,13-16H2,1-5H3/t18-,22+,23-,25-,28-,29+,30-/m1/s1
SMILES=CC(=O)OCC1=CC2C3C(C)(C)C3(OC(=O)Cc3ccccc3)CC(C)C2(O)C2C=C(C)C(=O)C2(O)C1
IONMODE=positive
INSTRUMENTTYPE=LC-ESI-Orbitrap
INSTRUMENT=Orbitrap
COMMENT=DB#=CCMSLIB00010123193; origin=GNPS
NUM_PEAKS=89
COMPOUND_NAME=DOPPA
PRECURSOR_MZ=531.235
COLLISION_ENERGY=205060
PARENT_MASS=530.2277235480093
52.340981 0.0022005660963808817
55.054562 0.0035725332624897553
61.826469 0.002093698659415736
67.054413 0.009171032301811705
69.03363 0.00861411748945813
69.070396 0.0025016011300855166
70.840103 0.002064347743629534
79.054466 0.010249490310058559
81.070183 0.003722298191757811
89.877403 0.001958985481832912
91.054543 0.0181110202152551
92.367813 0.0026942635516564828
93.070107 0.005594736101400641
93.749382 0.0020967090097527823
95.085381 0.002443651886097374
105.069931 0.023682426101543634
107.085381 0.011100666867858414
109.064827 0.0039668891566428275
109.100677 0.0031232384746855877
117.069618 0.004876767546015086
118.643143 0.0027920999376104894
119.08548 0.01987433292518
119.126137 0.0022532472272791928
121.064529 0.003110444485753141
121.101311 0.003710256790409626
123.079788 0.0032895603308073984
129.06955 0.005629355130276674
131.085678 0.004673568898264458
133.065018 0.002968958019911962
133.101242 0.020496722857364334
135.080063 0.004050426378495863
141.069611 0.0029524010930582073
142.077469 0.005113080047473225
143.086014 0.008350711834966574
144.093094 0.002348825850480414
145.064209 0.004080529881866327
145.1008 0.012539614328966569
147.080414 0.013383265010923809
155.085464 0.014466991132260494
156.093231 0.003160867853898667
157.101349 0.003350519925132587
159.042007 0.01809747363873839
159.080521 0.004973851344384831
159.117218 0.002965947669574916
161.096161 0.00477441563455551
167.084625 0.0044643495498397365
168.093781 0.0036342454443992057
169.101395 0.004544123833771465
171.117447 0.0025121373562651786
172.087448 0.0024248371964908345
173.096039 0.005516466992637436
175.074692 0.0032985913818185377
179.085083 0.00929219890287782
181.101578 0.005524745456064313
183.081085 0.003213548984796978
183.116592 0.0053305778593248235
192.093323 0.0037433706441171357
193.101501 0.0100703744650043
194.108734 0.002854564707104201
195.08075 0.004561433348209481
195.11615 0.003146568689797697
196.088455 0.003013360687383396
196.122864 0.002809409452048506
197.133224 0.003693699863555871
199.111588 0.0037877733115885695
207.11586 0.01001317780860042
209.095642 0.008624653715637792
209.131332 0.00387808382169996
210.103302 0.004507247042142647
211.111954 0.005647417232298952
219.11647 0.011114966031959385
220.124542 0.0030818461575512004
221.131409 0.004408658068604379
222.103821 0.004141489476191516
223.111542 0.0038908778106324067
225.127197 0.004416183944446995
234.139664 0.003191723944853392
237.127518 0.005575168824209839
247.111038 0.011939049436725822
249.16362 0.0032707456412008587
295.168579 0.011977431403523163
307.167114 0.004428977933379442
313.179199 0.0047668897587128944
335.161407 1.0
376.186035 0.003215806747549763
395.182587 0.9691243417680842
436.206665 0.0025941694029496917
471.207916 0.0028959570242385884
531.234924 0.13212277111779577
END IONS

BEGIN IONS
CHARGE=1+
PRECURSORTYPE=M+Na
FORMULA=C15H10O4
ONTOLOGY=
INCHIKEY=CZYNUKPCSYBXCE-UHFFFAOYSA-N
INCHI=InChI=1S/C15H10O4/c16-9-5-6-11(12(17)7-9)15-8-13(18)10-3-1-2-4-14(10)19-15/h1-8,16-17H
SMILES=O=c1cc(-c2ccc(O)cc2O)oc2ccccc12
IONMODE=positive
INSTRUMENTTYPE=LC-ESI-Orbitrap
INSTRUMENT=Orbitrap
COMMENT=DB#=CCMSLIB00010115114; origin=GNPS
NUM_PEAKS=9
COMPOUND_NAME="2',4'-Dihydroxyflavone "
PRECURSOR_MZ=277.047
COLLISION_ENERGY=205060
PARENT_MASS=276.03972354800925
66.73526 0.005440755909645175
84.959969 0.007327249164748276
90.209061 0.006433215404721154
96.128754 0.006211757500861225
98.430717 0.0064222792119379484
112.300453 0.0065070347060077974
277.047211 1.0
277.140564 0.02927892212883929
295.058258 0.04190475669705106
END IONS

BEGIN IONS
CHARGE=1+
PRECURSORTYPE=M+Na
FORMULA=C10H11N3O5S
ONTOLOGY=
INCHIKEY=SCYCMFQAMTUOEU-UHFFFAOYSA-N
INCHI=InChI=1S/C10H11N3O5S/c11-9(14)5-6(10(15)16)12-19-8-4-2-1-3-7(8)13(17)18/h1-4,6,12H,5H2,(H2,11,14)(H,15,16)
SMILES=N=C(O)CC(NSc1ccccc1[N+](=O)[O-])C(=O)O
IONMODE=positive
INSTRUMENTTYPE=LC-ESI-Orbitrap
INSTRUMENT=Orbitrap
COMMENT=DB#=CCMSLIB00010123441; origin=GNPS
NUM_PEAKS=19
COMPOUND_NAME=3-carbamoyl-2-[(2-nitrophenylthio)amino]propanoic acid
PRECURSOR_MZ=308.031
COLLISION_ENERGY=205060
PARENT_MASS=307.02372354800923
50.879791 0.0061828822406696255
73.953278 0.009384988617287926
88.755089 0.006427208131165636
98.005852 0.012664704394416722
101.302299 0.005964426150343781
107.242271 0.006930232023363304
109.029587 0.009428104950904868
109.037392 0.14913077471428243
109.045311 0.011842619633453675
110.021004 0.007372893048497252
137.03186 0.007119943891277853
137.501068 0.006340975463931749
137.512573 0.008074252075332859
138.016144 0.032279761767884656
146.032425 0.006481822153747097
193.988449 0.08631027663439649
219.019958 0.12301377423137949
291.004059 0.19678582104996895
308.030792 1.0
END IONS

BEGIN IONS
CHARGE=1+
PRECURSORTYPE=M+Na
FORMULA=C27H28ClNO6
ONTOLOGY=
INCHIKEY=SVEPZXBGWWNPEV-UHFFFAOYSA-N
INCHI=InChI=1S/C27H28ClNO6/c1-15-24(27(32)35-11-10-33-2)25(17-6-9-21(30)23(14-17)34-3)26-20(29-15)12-18(13-22(26)31)16-4-7-19(28)8-5-16/h4-9,14,18,25,29-30H,10-13H2,1-3H3
SMILES=COCCOC(=O)C1=C(C)NC2=C(C(=O)CC(c3ccc(Cl)cc3)C2)C1c1ccc(O)c(OC)c1
IONMODE=positive
INSTRUMENTTYPE=LC-ESI-Orbitrap
INSTRUMENT=Orbitrap
COMMENT=DB#=CCMSLIB00010122283; origin=GNPS
NUM_PEAKS=9
COMPOUND_NAME="2-methoxyethyl 7-(4-chlorophenyl)-4-(4-hydroxy-3-methoxyphenyl)-2-methyl-5-oxo -1,4,6,7,8-pentahydroquinoline-3-carboxylate "
PRECURSOR_MZ=520.15
COLLISION_ENERGY=205060
PARENT_MASS=519.1427235480093
53.920448 0.000800576517895648
73.304657 0.0008496648372914967
78.757767 0.0007131941692328806
92.368347 0.0007753898409281444
118.639442 0.000880505666231297
142.193146 0.0007869551517805695
143.518982 0.000719876348836504
242.80658 0.000934734123783779
520.149475 1.0
END IONS

BEGIN IONS
CHARGE=1+
PRECURSORTYPE=M+Na
FORMULA=C19H18F2N2O2
ONTOLOGY=
INCHIKEY=XFDRWJXKVPEHHA-UHFFFAOYSA-N
INCHI=InChI=1S/C19H18F2N2O2/c1-12-14(15-4-2-3-5-17(15)23-12)8-9-22-19(24)11-25-18-7-6-13(20)10-16(18)21/h2-7,10,23H,8-9,11H2,1H3,(H,22,24)
SMILES=Cc1[nH]c2ccccc2c1CCN=C(O)COc1ccc(F)cc1F
IONMODE=positive
INSTRUMENTTYPE=LC-ESI-Orbitrap
INSTRUMENT=Orbitrap
COMMENT=DB#=CCMSLIB00010118315; origin=GNPS
NUM_PEAKS=7
COMPOUND_NAME="2-(2,4-difluorophenoxy)-N-[2-(2-methylindol-3-yl)ethyl]acetamide "
PRECURSOR_MZ=367.123
COLLISION_ENERGY=205060
PARENT_MASS=366.1157235480092
55.65538 0.001036568877483391
60.64666 0.0009581729119594371
91.683723 0.0011535947390626266
157.088455 0.0011713947892057466
238.106949 0.004629906659566845
275.413208 0.0011869224925220854
367.122162 1.0
END IONS

BEGIN IONS
CHARGE=1+
PRECURSORTYPE=M+Na
FORMULA=C19H19NO2
ONTOLOGY=
INCHIKEY=WCOCVJTYTQHQIG-UHFFFAOYSA-N
INCHI=InChI=1S/C19H19NO2/c1-2-3-11-16-18(21)15-12-7-8-13-17(15)20(19(16)22)14-9-5-4-6-10-14/h4-10,12-13,21H,2-3,11H2,1H3
SMILES=CCCCc1c(O)c2ccccc2n(-c2ccccc2)c1=O
IONMODE=positive
INSTRUMENTTYPE=LC-ESI-Orbitrap
INSTRUMENT=Orbitrap
COMMENT=DB#=CCMSLIB00010115135; origin=GNPS
NUM_PEAKS=14
COMPOUND_NAME=3-butyl-4-hydroxy-1-phenylhydroquinolin-2-one
PRECURSOR_MZ=316.131
COLLISION_ENERGY=205060
PARENT_MASS=315.1237235480092
53.370449 0.0021622388210255504
56.458969 0.0022461316898320844
56.965248 0.0037761778209226817
65.823883 0.0023539939497261996
68.909027 0.001966488793810304
69.638168 0.002489820499222493
82.389793 0.0021961954583996236
84.959824 0.00493669583941307
102.564552 0.0024099225289305557
104.268356 0.002231150820402346
119.337799 0.0026556087875782624
150.545853 0.0025956853098593096
316.130371 1.0
334.140656 0.004271545236732692
END IONS

BEGIN IONS
CHARGE=1+
PRECURSORTYPE=M+Na
FORMULA=C31H31N5O5
ONTOLOGY=
INCHIKEY=HOVSZVKDFBLXOB-UHFFFAOYSA-N
INCHI=InChI=1S/C31H31N5O5/c1-38-23-12-8-21(9-13-23)31(20-6-4-3-5-7-20,22-10-14-24(39-2)15-11-22)40-17-26-25(37)16-27(41-26)36-19-35-28-29(32)33-18-34-30(28)36/h3-15,18-19,25-27,37H,16-17H2,1-2H3,(H2,32,33,34)
SMILES=COc1ccc(C(OCC2OC(n3cnc4c(N)ncnc43)CC2O)(c2ccccc2)c2ccc(OC)cc2)cc1
IONMODE=positive
INSTRUMENTTYPE=LC-ESI-Orbitrap
INSTRUMENT=Orbitrap
COMMENT=DB#=CCMSLIB00010122213; origin=GNPS
NUM_PEAKS=59
COMPOUND_NAME=5-(6-aminopurin-9-yl)-2-{[bis(4-methoxyphenyl)phenylmethoxy]methyl}oxolan-3-ol
PRECURSOR_MZ=576.222
COLLISION_ENERGY=205060
PARENT_MASS=575.2147235480093
58.2327 0.0007875355825971179
63.050091 0.0007772590202525979
68.58577 0.0009767747184535227
78.17025 0.000903334894869514
81.778587 0.0010349250224517823
82.405449 0.0009940694209357637
91.054169 0.0020558137646281226
92.386528 0.0008968180504559159
104.297379 0.0010344237267276594
121.054878 0.0007572071912876809
121.064583 0.004888635901646781
141.069733 0.001156990531275715
145.06337 0.0012018564985847168
152.061752 0.01308607423036694
165.069611 0.021104549985575215
167.085739 0.003676001544993422
180.056641 0.04666987997225829
182.072769 0.007620196302392609
183.079727 0.012210310600324188
185.871811 0.000804328989355236
193.075409 0.001526445479954312
195.08017 0.28794476523193324
202.078735 0.001228926467687355
210.067078 0.039232907257032615
211.074722 0.0016745783664326368
213.090103 0.0011301712100351383
215.08606 0.004540486021243409
217.100418 0.00539870430094186
225.090607 0.10755374955416011
228.093445 0.009218577718758562
229.100479 0.022061774170787946
239.085022 0.001979867462423499
240.092773 0.0034406432025177076
241.1008 0.007352003089986844
243.082047 0.0008970686983179774
244.087311 0.00439335572621333
245.095551 0.035767951211894945
255.08107 0.003462950862241178
256.086792 0.009957988911839879
257.095795 0.011918807136746706
258.10434 0.001967335069320426
259.110718 0.029681970473180552
260.11908 0.02393712147473181
271.07901 0.0014775691468523265
271.111206 0.03260703102343783
272.074738 0.0846846386196722
272.117889 0.008975449292558942
273.089783 0.010084064786456794
273.125824 0.0031604188927329916
274.090607 0.001623947498296221
275.106171 0.0014565147264391637
287.105347 0.009751204425639171
288.113953 0.06727614200805532
301.782043 0.0009504566929370691
303.137268 1.0
304.506714 0.0010835507076917062
409.136749 0.001628208511951266
546.211487 0.0015778282916769119
576.220398 0.08226338027215846
END IONS

BEGIN IONS
CHARGE=1+
PRECURSORTYPE=M+Na
FORMULA=C17H27NO4
ONTOLOGY=
INCHIKEY=CNRAIZKPBXFGHK-UHFFFAOYSA-N
INCHI=InChI=1S/C17H27NO4/c1-19-14-8-6-5-7-13(14)18-11-12-9-15(20-2)17(22-4)16(10-12)21-3/h9-10,13-14,18H,5-8,11H2,1-4H3
SMILES=COc1cc(CNC2CCCCC2OC)cc(OC)c1OC
IONMODE=positive
INSTRUMENTTYPE=LC-ESI-Orbitrap
INSTRUMENT=Orbitrap
COMMENT=DB#=CCMSLIB00010115298; origin=GNPS
NUM_PEAKS=8
COMPOUND_NAME="(2-methoxycyclohexyl)[(3,4,5-trimethoxyphenyl)methyl]amine "
PRECURSOR_MZ=332.183
COLLISION_ENERGY=205060
PARENT_MASS=331.1757235480092
68.382874 0.005291992921383724
82.388321 0.006251969649220625
84.959702 0.010009454316258999
92.369583 0.005156238636639112
95.851936 0.00480958037380912
218.868301 0.009825216358391311
332.183197 1.0
350.194946 0.006618021381299848
END IONS

BEGIN IONS
CHARGE=1+
PRECURSORTYPE=M+Na
FORMULA=C14H21NO4
ONTOLOGY=
INCHIKEY=MMZDBIIMJQSYKF-UHFFFAOYSA-N
INCHI=InChI=1S/C14H21NO4/c1-18-12-6-5-11(10-13(12)19-2)7-8-15-14(17)4-3-9-16/h5-6,10,16H,3-4,7-9H2,1-2H3,(H,15,17)
SMILES=COc1ccc(CCN=C(O)CCCO)cc1OC
IONMODE=positive
INSTRUMENTTYPE=LC-ESI-Orbitrap
INSTRUMENT=Orbitrap
COMMENT=DB#=CCMSLIB00010116078; origin=GNPS
NUM_PEAKS=9
COMPOUND_NAME="N-[2-(3,4-dimethoxyphenyl)ethyl]-4-hydroxybutanamide "
PRECURSOR_MZ=290.136
COLLISION_ENERGY=205060
PARENT_MASS=289.12872354800925
59.6385 0.001721217165278772
64.072517 0.0017670231250223208
72.407143 0.0020853357266300324
76.377457 0.0017973016407850054
81.921623 0.001690162277317044
84.959633 0.0022041206730836417
177.141327 0.0020340951614931813
272.125763 0.004225017507193088
290.135529 1.0
END IONS

BEGIN IONS
CHARGE=1+
PRECURSORTYPE=M+Na
FORMULA=C20H19ClN2O4
ONTOLOGY=
INCHIKEY=AHLXYBMYSMXNBD-UHFFFAOYSA-N
INCHI=InChI=1S/C20H19ClN2O4/c21-10-19(24)23-18(20(25)26)8-14-11-22-17-9-15(6-7-16(14)17)27-12-13-4-2-1-3-5-13/h1-7,9,11,18,22H,8,10,12H2,(H,23,24)(H,25,26)
SMILES=O=C(O)C(Cc1c[nH]c2cc(OCc3ccccc3)ccc12)N=C(O)CCl
IONMODE=positive
INSTRUMENTTYPE=LC-ESI-Orbitrap
INSTRUMENT=Orbitrap
COMMENT=DB#=CCMSLIB00010124090; origin=GNPS
NUM_PEAKS=22
COMPOUND_NAME=2-(2-chloroacetylamino)-3-[6-(phenylmethoxy)indol-3-yl]propanoic acid
PRECURSOR_MZ=409.093
COLLISION_ENERGY=205060
PARENT_MASS=408.08572354800924
52.379421 0.0035014352959431426
73.841087 0.0032356161979220322
73.950447 0.0036807677974789155
74.289833 0.0033691616777890973
83.710289 0.0029901468873092365
91.054237 0.026238507139595725
92.37294 0.0037112924785913876
125.792374 0.003420036146309884
144.755005 0.0032114508253746586
168.041641 0.04892852009986658
196.060684 0.003805410245354843
209.355881 0.007130056763188252
223.342133 0.0030562836963862593
238.070908 0.021583493269943747
266.078827 0.0030321183238388857
287.114868 0.38384277754248336
289.50116 0.0035891937541414998
318.036591 0.12406629451992944
318.081299 0.06224872782032155
332.832886 0.0031313235374544196
406.006958 0.0032343443362090126
409.090851 1.0
END IONS

BEGIN IONS
CHARGE=1+
PRECURSORTYPE=M+Na
FORMULA=C25H25N3O4
ONTOLOGY=
INCHIKEY=ABCGVRYRJFTVKW-UHFFFAOYSA-N
INCHI=InChI=1S/C25H25N3O4/c1-5-28-20-9-7-6-8-18(20)19-12-16(10-11-21(19)28)15-26-27-25(29)17-13-22(30-2)24(32-4)23(14-17)31-3/h6-15H,5H2,1-4H3,(H,27,29)/b26-15+
SMILES=CCn1c2ccccc2c2cc(C=NN=C(O)c3cc(OC)c(OC)c(OC)c3)ccc21
IONMODE=positive
INSTRUMENTTYPE=LC-ESI-Orbitrap
INSTRUMENT=Orbitrap
COMMENT=DB#=CCMSLIB00010118460; origin=GNPS
NUM_PEAKS=19
COMPOUND_NAME="N-[(1E)-2-(9-ethylcarbazol-3-yl)-1-azavinyl](3,4,5-trimethoxyphenyl)carboxamid e "
PRECURSOR_MZ=454.174
COLLISION_ENERGY=205060
PARENT_MASS=453.1667235480092
59.944969 0.0004442379914991215
60.54034 0.00047587656284401876
61.831791 0.00044115525890654175
73.955879 0.0006051890826485475
104.287903 0.0007747393752404329
145.934586 0.0005904244160209288
198.091187 0.002084251730751539
203.031097 0.002967211244899903
211.063034 0.0035870027450922493
221.10611 0.0040714785093787275
223.259354 0.00048496251153793795
253.988571 0.0004886942404657977
303.179474 0.0011800375866227576
397.643646 0.0005480774051439125
431.66803 0.0006139505331748268
439.151733 0.0026446600662657707
451.672272 0.0005511601377364922
454.172821 1.0
472.182556 0.003266560804547777
END IONS

BEGIN IONS
CHARGE=1+
PRECURSORTYPE=M+Na
FORMULA=C18H17NO5
ONTOLOGY=
INCHIKEY=SIMPBZKYKMVOJU-UHFFFAOYSA-N
INCHI=InChI=1S/C18H17NO5/c1-23-15-8-7-11(9-16(15)24-2)14(20)10-18(22)12-5-3-4-6-13(12)19-17(18)21/h3-9,22H,10H2,1-2H3,(H,19,21)
SMILES=COc1ccc(C(=O)CC2(O)C(O)=Nc3ccccc32)cc1OC
IONMODE=positive
INSTRUMENTTYPE=LC-ESI-Orbitrap
INSTRUMENT=Orbitrap
COMMENT=DB#=CCMSLIB00010122150; origin=GNPS
NUM_PEAKS=19
COMPOUND_NAME="3-[2-(3,4-dimethoxyphenyl)-2-oxoethyl]-3-hydroxyindolin-2-one "
PRECURSOR_MZ=350.1
COLLISION_ENERGY=205060
PARENT_MASS=349.09272354800925
51.058601 0.0014683376899517527
55.436039 0.0014175233069736472
56.193161 0.0016148414954210962
71.749863 0.0016385988692809896
79.021179 0.001678854419432476
92.362717 0.0016122017872144414
130.208572 0.00199627933128272
146.932068 0.0016385988692809896
162.424896 0.0020015587476960297
165.054413 0.0037754426625680798
170.021164 1.0
188.031677 0.003912047562262468
203.067581 0.016586606516515664
211.047241 0.010368773835740197
237.661621 0.0016814941276391308
242.864029 0.0016927128875174138
298.893707 0.0016689555136575203
328.217651 0.001973841811526154
350.099335 0.3579318942084142
END IONS

BEGIN IONS
CHARGE=1+
PRECURSORTYPE=M+Na
FORMULA=C19H18BrN5O3S
ONTOLOGY=
INCHIKEY=PRNAQHLYVJWCIL-UHFFFAOYSA-N
INCHI=InChI=1S/C19H18BrN5O3S/c1-9-13(23-18(28-9)12-7-11(20)5-6-14(12)27-4)8-29-19-24-15-16(25(19)3)21-10(2)22-17(15)26/h5-7H,8H2,1-4H3,(H,21,22,26)
SMILES=COc1ccc(Br)cc1-c1nc(CSc2nc3c(O)nc(C)nc3n2C)c(C)o1
IONMODE=positive
INSTRUMENTTYPE=LC-ESI-Orbitrap
INSTRUMENT=Orbitrap
COMMENT=DB#=CCMSLIB00010122746; origin=GNPS
NUM_PEAKS=39
COMPOUND_NAME="8-{[2-(5-bromo-2-methoxyphenyl)-5-methyl(1,3-oxazol-4-yl)]methylthio}-2,9-dime thylhydropurin-6-one "
PRECURSOR_MZ=498.021
COLLISION_ENERGY=205060
PARENT_MASS=497.01372354800924
63.293411 0.0015920887584927091
66.384064 0.002004537544077047
67.483612 0.0015009734155801162
69.033943 0.012459719425487391
69.969841 0.001711753575517915
78.046143 0.0018283812144460339
105.057404 0.0035097630089930844
118.648354 0.00251660577124582
131.049286 0.009749341691647456
132.057068 0.011839527658062341
133.052094 0.05489760154045673
156.968521 0.0019608021794790026
158.059845 0.007149517240541468
159.068115 0.01915487482270473
164.797562 0.0019377196259411456
172.074646 0.0022851728002478335
184.076096 0.00690289837905805
184.789673 0.001930430398508138
184.959564 0.18892887840050052
196.947784 0.00274500156414672
208.18309 0.008621941182008971
208.959396 0.010113195627678411
211.970337 0.26047264565546857
218.023041 0.05696895700266968
219.030655 0.04657026663386514
219.052841 0.0025159983356264027
222.975433 0.0030784837192068108
223.05162 0.0020774298184071216
225.98851 0.002740142079191382
229.981781 0.0023252635511293745
237.985474 0.020121304893197633
249.987335 0.002869525866127264
252.998352 0.002598609579867154
279.996368 0.14918679556450512
287.962555 0.008332194391546926
438.632446 0.0019522980808071605
472.967133 0.0018320258281625376
483.001282 0.01391756491208888
498.020081 1.0
END IONS

BEGIN IONS
CHARGE=1+
PRECURSORTYPE=M+Na
FORMULA=C19H22N2O2
ONTOLOGY=
INCHIKEY=UXMKYLOOFICPRA-UHFFFAOYSA-N
INCHI=InChI=1S/C19H22N2O2/c1-2-23-18-10-6-5-9-17(18)19(22)20-14-21-12-11-15-7-3-4-8-16(15)13-21/h3-10H,2,11-14H2,1H3,(H,20,22)
SMILES=CCOc1ccccc1C(O)=NCN1CCc2ccccc2C1
IONMODE=positive
INSTRUMENTTYPE=LC-ESI-Orbitrap
INSTRUMENT=Orbitrap
COMMENT=DB#=CCMSLIB00010115840; origin=GNPS
NUM_PEAKS=23
COMPOUND_NAME="(2-ethoxyphenyl)-N-(2-1,2,3,4-tetrahydroisoquinolylmethyl)carboxamide "
PRECURSOR_MZ=333.157
COLLISION_ENERGY=205060
PARENT_MASS=332.1497235480092
54.232738 0.0023082392838259156
73.9748 0.0020912720841613944
91.054192 0.010875708789906468
105.069847 0.009995988841686874
115.053879 0.0033456706839024926
117.069778 0.03472477984210622
118.687317 0.0036775028716247013
119.085197 0.030840337666599812
129.069473 0.005008478130070925
131.072754 0.022575528287782375
144.080643 0.013787445074479918
146.096298 1.0
156.077988 0.015139387751381114
164.149658 0.0022380440133462176
168.078537 0.0041770744069867085
186.088638 0.022199938009371523
188.067978 0.3889747844002407
200.068008 0.27153718526081644
223.181259 0.002605429649752949
233.018143 0.0026710667857859135
264.386139 0.0022353091326781775
273.20639 0.002249895162907725
333.156708 0.20048316225135376
END IONS

BEGIN IONS
CHARGE=1+
PRECURSORTYPE=M+Na
FORMULA=C29H31N3O3
ONTOLOGY=
INCHIKEY=VIFLWMXTJSJZPC-UHFFFAOYSA-N
INCHI=InChI=1S/C29H31N3O3/c1-19-23(24-9-5-6-10-25(24)31-19)15-16-30-28(34)26(18-22-8-7-17-35-22)32-27(33)20-11-13-21(14-12-20)29(2,3)4/h5-14,17-18,31H,15-16H2,1-4H3,(H,30,34)(H,32,33)/b26-18-
SMILES=Cc1[nH]c2ccccc2c1CCN=C(O)C(=Cc1ccco1)NC(=O)c1ccc(C(C)(C)C)cc1
IONMODE=positive
INSTRUMENTTYPE=LC-ESI-Orbitrap
INSTRUMENT=Orbitrap
COMMENT=DB#=CCMSLIB00010118685; origin=GNPS
NUM_PEAKS=22
COMPOUND_NAME=(2Z)-2-{[4-(tert-butyl)phenyl]carbonylamino}-3-(2-furyl)-N-[2-(2-methylindol-3 -yl)ethyl]prop-2-enamide
PRECURSOR_MZ=492.226
COLLISION_ENERGY=205060
PARENT_MASS=491.2187235480092
56.965118 0.0019026816333679612
65.140488 0.00031982649698562225
87.177773 0.00029049606701816034
113.886139 0.00031800634618976914
143.072662 0.0021932297046945745
144.079498 0.0003792154172388874
157.088608 0.0034855887740587533
157.992599 0.00038238768005451713
158.096405 0.013915520873073293
159.09903 0.0004121861487980556
161.096542 0.0025681287643318676
187.047638 0.0004960170940242057
192.05719 0.0013948595613249366
194.054932 0.003274087251580619
197.10463 0.0028225858455921357
426.515991 0.0003520691682264492
474.21405 0.0007619151231441222
476.200867 0.0008084069749010566
477.204834 0.0014825388253766048
489.397064 0.00040823382135563165
491.712952 0.0030155218299525678
492.225525 1.0
END IONS

BEGIN IONS
CHARGE=1+
PRECURSORTYPE=M+Na
FORMULA=C18H14N2O4
ONTOLOGY=
INCHIKEY=ILEYTZZTYFIPGV-UHFFFAOYSA-N
INCHI=InChI=1S/C18H14N2O4/c21-15(12-5-6-16-17(9-12)24-8-7-23-16)10-20-11-19-14-4-2-1-3-13(14)18(20)22/h1-6,9,11H,7-8,10H2
SMILES=O=C(Cn1cnc2ccccc2c1=O)c1ccc2c(c1)OCCO2
IONMODE=positive
INSTRUMENTTYPE=LC-ESI-Orbitrap
INSTRUMENT=Orbitrap
COMMENT=DB#=CCMSLIB00010115600; origin=GNPS
NUM_PEAKS=7
COMPOUND_NAME="3-(2-(2H,3H-benzo[3,4-e]1,4-dioxin-6-yl)-2-oxoethyl)-3-hydroquinazolin-4-one "
PRECURSOR_MZ=345.085
COLLISION_ENERGY=205060
PARENT_MASS=344.0777235480092
57.179451 0.0024746232898304014
67.712112 0.003046902659159137
84.959808 0.0026092059381259305
104.282913 0.0027474259552943115
219.073868 0.0028529096526070234
269.116058 0.0028747338658441364
345.083588 1.0
END IONS

BEGIN IONS
CHARGE=1+
PRECURSORTYPE=M+Na
FORMULA=C24H24N2O4
ONTOLOGY=
INCHIKEY=DRBKOEZCXGYSBX-UHFFFAOYSA-N
INCHI=InChI=1S/C24H24N2O4/c1-15-8-7-11-21(16(15)2)25-24(28)20-9-5-6-10-22(20)26-23(27)17-12-18(29-3)14-19(13-17)30-4/h5-14H,1-4H3,(H,25,28)(H,26,27)
SMILES=COc1cc(OC)cc(C(O)=Nc2ccccc2C(O)=Nc2cccc(C)c2C)c1
IONMODE=positive
INSTRUMENTTYPE=LC-ESI-Orbitrap
INSTRUMENT=Orbitrap
COMMENT=DB#=CCMSLIB00010118697; origin=GNPS
NUM_PEAKS=20
COMPOUND_NAME="{2-[(3,5-dimethoxyphenyl)carbonylamino]phenyl}-N-(2,3-dimethylphenyl)carboxami de "
PRECURSOR_MZ=427.163
COLLISION_ENERGY=205060
PARENT_MASS=426.15572354800923
65.462242 0.0007018629141475386
79.982353 0.0007654584006024227
89.034882 0.0009380334252095399
136.230057 0.0007906075247913996
141.628708 0.0007374185724836784
182.657471 0.0008065063964051206
182.944244 0.0011343122220407503
186.918091 0.000882242839365028
190.832687 0.0011588832054437736
191.0495 0.0032156190514733194
226.017685 0.003358419825603832
228.014923 0.0009172203569152142
250.832657 0.0008180692121241904
268.132996 0.010115440261435264
281.269653 0.0008180692121241904
325.705109 0.0008247178311626556
329.526581 0.0008018812701174927
409.152161 0.005499564226382587
412.139709 0.0012435808305859602
427.16214 1.0
END IONS

BEGIN IONS
CHARGE=1+
PRECURSORTYPE=M+Na
FORMULA=C28H40N2O9
ONTOLOGY=
INCHIKEY=UIFFUZWRFRDZJC-UHFFFAOYSA-N
INCHI=InChI=1S/C28H40N2O9/c1-6-7-8-9-11-20-25(39-22(32)14-16(2)3)18(5)38-28(36)23(17(4)37-27(20)35)30-26(34)19-12-10-13-21(24(19)33)29-15-31/h10,12-13,15-18,20,23,25,33H,6-9,11,14H2,1-5H3,(H,29,31)(H,30,34)/t17-,18+,20-,23+,25+/m1/s1
SMILES=CCCCCCC1C(=O)OC(C)C(N=C(O)c2cccc(N=CO)c2O)C(=O)OC(C)C1OC(=O)CC(C)C
IONMODE=positive
INSTRUMENTTYPE=LC-ESI-Orbitrap
INSTRUMENT=Orbitrap
COMMENT=DB#=CCMSLIB00010121693; origin=GNPS
NUM_PEAKS=26
COMPOUND_NAME=Antipiricullin
PRECURSOR_MZ=571.263
COLLISION_ENERGY=205060
PARENT_MASS=570.2557235480093
72.872009 0.00415344237030398
73.960869 0.0036301632822031828
81.070137 0.005638571270475173
83.183723 0.0034416188588143833
92.386909 0.006549869316854369
95.0858 0.005038781401868776
104.356461 0.005030583818243176
108.535393 0.0038187077055919817
124.036522 0.004906253799921576
128.984207 0.0032503419075503846
130.749588 0.00415617489817918
140.466476 0.003470310401503983
186.016113 0.2548574098641524
205.1194 0.007135996546084765
209.847183 0.00820168241741276
215.078857 0.0211729922409871
241.848877 0.004885759840857576
243.073761 1.0
259.068146 0.03508702418150543
260.532776 0.004795586420975977
287.063507 0.31732709588303687
307.188141 0.09322428725426035
325.193115 0.005053810305182376
408.235565 0.1229254989937466
525.672424 0.004414398782385579
571.261292 0.2524117974158484
END IONS

BEGIN IONS
CHARGE=1+
PRECURSORTYPE=M+Na
FORMULA=C28H40N2O9
ONTOLOGY=
INCHIKEY=UIFFUZWRFRDZJC-UHFFFAOYSA-N
INCHI=InChI=1S/C28H40N2O9/c1-6-7-8-9-11-20-25(39-22(32)14-16(2)3)18(5)38-28(36)23(17(4)37-27(20)35)30-26(34)19-12-10-13-21(24(19)33)29-15-31/h10,12-13,15-18,20,23,25,33H,6-9,11,14H2,1-5H3,(H,29,31)(H,30,34)/t17-,18+,20-,23+,25+/m1/s1
SMILES=CCCCCCC1C(=O)OC(C)C(N=C(O)c2cccc(N=CO)c2O)C(=O)OC(C)C1OC(=O)CC(C)C
IONMODE=positive
INSTRUMENTTYPE=LC-ESI-Orbitrap
INSTRUMENT=Orbitrap
COMMENT=DB#=CCMSLIB00010121694; origin=GNPS
NUM_PEAKS=24
COMPOUND_NAME=Antipiricullin
PRECURSOR_MZ=571.263
COLLISION_ENERGY=205060
PARENT_MASS=570.2557235480093
56.540871 0.002340943166709101
56.760632 0.002269335766216866
59.737728 0.003059669297575603
64.879227 0.0025663738719624318
73.940369 0.0033239978500099014
81.07003 0.009093255820532406
92.363136 0.002884628985261252
95.08532 0.004047144190783332
119.136147 0.0024983026393957395
124.03688 0.005148660499589805
125.293556 0.00244791224645676
136.038971 0.003593630654332513
186.015991 0.25203152847322413
205.119019 0.0037386135392797532
215.078796 0.01844111573170387
243.073669 1.0
259.06842 0.03651093383122578
287.063385 0.32619999858553284
307.187195 0.08274190924778636
329.54361 0.0035467764293190757
390.223877 0.0029907140230275254
408.235016 0.12321688732354522
469.197235 0.0035626891849840163
571.261658 0.26092410676398203
END IONS

BEGIN IONS
CHARGE=1+
PRECURSORTYPE=M+Na
FORMULA=C17H22N2O3S
ONTOLOGY=
INCHIKEY=NUUXBDNYONRYMI-UHFFFAOYSA-N
INCHI=InChI=1S/C17H22N2O3S/c1-5-19(6-2)17(20)13-7-8-15(16(9-13)21-4)22-10-14-11-23-12(3)18-14/h7-9,11H,5-6,10H2,1-4H3
SMILES=CCN(CC)C(=O)c1ccc(OCc2csc(C)n2)c(OC)c1
IONMODE=positive
INSTRUMENTTYPE=LC-ESI-Orbitrap
INSTRUMENT=Orbitrap
COMMENT=DB#=CCMSLIB00010114835; origin=GNPS
NUM_PEAKS=29
COMPOUND_NAME="N,N-diethyl{3-methoxy-4-[(2-methyl(1,3-thiazol-4-yl))methoxy]phenyl}carboxamid e "
PRECURSOR_MZ=357.124
COLLISION_ENERGY=205060
PARENT_MASS=356.11672354800925
56.965248 0.0024345367784482782
57.997211 0.0009810759644053376
67.864861 0.0009617126230026008
82.405144 0.0011363860985731235
90.976624 0.0013804448808367867
92.387329 0.0012065782111580449
118.663887 0.0010347285562087546
121.258759 0.0012622478176909134
123.055267 0.0013413147950854225
138.027588 0.0015712544742429236
173.02095 0.05764991159424441
221.081436 0.001257003579394339
230.078476 0.0013457522274902165
244.094116 0.01343049427752751
245.073303 0.002437360599069511
245.102188 0.07525723997352063
255.165894 0.0011763229902162684
284.035614 0.013078726908711124
286.127472 0.0017717457383504289
298.57489 0.0011843910491340754
305.858368 0.0015773055184312788
306.455383 0.0010141550059683466
333.853088 0.0020722809330387414
336.123199 0.016182509174391495
336.624115 0.019734472112956054
339.133636 0.0011823740344046236
344.066986 0.0015381754326799146
357.124084 1.0
358.596069 0.0010528816887738204
END IONS

BEGIN IONS
CHARGE=1+
PRECURSORTYPE=M+Na
FORMULA=C14H19NO4
ONTOLOGY=
INCHIKEY=YKJYKKNCCRKFSL-UHFFFAOYSA-N
INCHI=InChI=1S/C14H19NO4/c1-9(16)19-14-12(15-8-13(14)17)7-10-3-5-11(18-2)6-4-10/h3-6,12-15,17H,7-8H2,1-2H3
SMILES=COc1ccc(CC2NCC(O)C2OC(C)=O)cc1
IONMODE=positive
INSTRUMENTTYPE=LC-ESI-Orbitrap
INSTRUMENT=Orbitrap
COMMENT=DB#=CCMSLIB00010117911; origin=GNPS
NUM_PEAKS=18
COMPOUND_NAME=GNF-Pf-4325
PRECURSOR_MZ=288.121
COLLISION_ENERGY=205060
PARENT_MASS=287.1137235480092
52.985989 0.017178879815951384
59.57756 0.016588592315667592
63.906319 0.015105305776492935
65.895607 0.01742861683530222
68.243233 0.015400449526634831
68.889313 0.014083654333694065
76.715187 0.016232906257804283
82.377136 0.02012274952890517
90.29525 0.015725864430637435
104.258469 0.021363866837194167
108.060112 0.017436184623767396
170.956863 0.019698953374855267
185.348297 0.01876054760517334
248.748428 0.019895715874949864
264.939941 0.021991993279803845
284.425446 0.015392881738169654
288.120544 1.0
288.157501 0.03400964136250464
END IONS

BEGIN IONS
CHARGE=1+
PRECURSORTYPE=M+Na
FORMULA=C24H25N3O5
ONTOLOGY=
INCHIKEY=FBRNSVONRJRESR-UHFFFAOYSA-N
INCHI=InChI=1S/C24H25N3O5/c1-31-17-11-16(12-18(13-17)32-2)25-22(28)15-27-21-8-4-3-7-19(21)20(14-23(27)29)24(30)26-9-5-6-10-26/h3-4,7-8,11-14H,5-6,9-10,15H2,1-2H3,(H,25,28)
SMILES=COc1cc(N=C(O)Cn2c(=O)cc(C(=O)N3CCCC3)c3ccccc32)cc(OC)c1
IONMODE=positive
INSTRUMENTTYPE=LC-ESI-Orbitrap
INSTRUMENT=Orbitrap
COMMENT=DB#=CCMSLIB00010125591; origin=GNPS
NUM_PEAKS=13
COMPOUND_NAME="N-(3,5-dimethoxyphenyl)-2-[2-oxo-4-(pyrrolidinylcarbonyl)hydroquinolyl]acetami de "
PRECURSOR_MZ=458.169
COLLISION_ENERGY=205060
PARENT_MASS=457.1617235480092
52.701939 0.0023324722686521807
57.003109 0.0021349339006230057
66.285042 0.0023122119232132908
67.586258 0.0022092218338989346
92.368111 0.002194870755879721
136.225571 0.002744432625909605
157.957886 0.0023772138648297286
231.614655 0.0022522750679565755
304.512665 0.0020809063127859664
305.088257 0.00350419557986797
432.711426 0.0024548785223454726
440.158173 0.005103918688480306
458.168396 1.0
END IONS

BEGIN IONS
CHARGE=1+
PRECURSORTYPE=M+Na
FORMULA=C22H13Br2FN2O5
ONTOLOGY=
INCHIKEY=XZPHCPOTGWXJFQ-UHFFFAOYSA-N
INCHI=InChI=1S/C22H13Br2FN2O5/c23-15-6-14(10-26-27-21(28)12-4-5-18-19(8-12)31-11-30-18)20(17(24)9-15)32-22(29)13-2-1-3-16(25)7-13/h1-10H,11H2,(H,27,28)/b26-10-
SMILES=O=C(Oc1c(Br)cc(Br)cc1C=NN=C(O)c1ccc2c(c1)OCO2)c1cccc(F)c1
IONMODE=positive
INSTRUMENTTYPE=LC-ESI-Orbitrap
INSTRUMENT=Orbitrap
COMMENT=DB#=CCMSLIB00010125130; origin=GNPS
NUM_PEAKS=24
COMPOUND_NAME="2-[(1Z)-2-(2H-benzo[3,4-d]1,3-dioxolan-5-ylcarbonylamino)-2-azavinyl]-4,6-dibr omophenyl 3-fluorobenzoate "
PRECURSOR_MZ=584.907
COLLISION_ENERGY=205060
PARENT_MASS=583.8997235480093
82.398438 0.0021909630258952727
87.908142 0.002066233510758099
91.947838 0.0021788464444248046
104.287933 0.0024660806992835536
123.023949 0.06712158490587554
123.033897 0.004528750509609162
148.039185 0.14253233701772441
149.023209 0.019792792202053263
163.731903 0.002056255149547125
167.725586 0.0021439221801863957
170.021057 0.01631176961959636
195.939087 0.002292172118178008
196.946381 0.020027996430597647
202.276733 0.002103295995256002
220.860626 0.002478197280754022
237.063583 0.002488888382051494
275.864716 0.029981411738544128
422.893097 0.006676949130314546
444.877563 0.017335977123894182
461.881927 0.0038445200265709504
505.989197 0.021649480127380907
584.906372 1.0
625.932495 0.005136717803392072
797.006714 0.00228005553670754
END IONS

BEGIN IONS
CHARGE=1+
PRECURSORTYPE=M+Na
FORMULA=C20H21NO2
ONTOLOGY=
INCHIKEY=UGORMPYEOUOURD-UHFFFAOYSA-N
INCHI=InChI=1S/C20H21NO2/c1-2-3-11-17-19(22)16-12-7-8-13-18(16)21(20(17)23)14-15-9-5-4-6-10-15/h4-10,12-13,22H,2-3,11,14H2,1H3
SMILES=CCCCc1c(O)c2ccccc2n(Cc2ccccc2)c1=O
IONMODE=positive
INSTRUMENTTYPE=LC-ESI-Orbitrap
INSTRUMENT=Orbitrap
COMMENT=DB#=CCMSLIB00010116379; origin=GNPS
NUM_PEAKS=24
COMPOUND_NAME=3-butyl-4-hydroxy-1-benzylhydroquinolin-2-one
PRECURSOR_MZ=330.146
COLLISION_ENERGY=205060
PARENT_MASS=329.13872354800924
58.75526 0.004669127247358513
61.27491 0.0044313837063828295
67.018219 0.010102151773917585
68.049889 0.008361947002677539
69.033997 0.006027383378998281
73.973167 0.005171896374995616
82.065407 0.07808706090521828
83.07296 0.010604920901554687
85.028618 0.03958429957245137
86.060333 0.02465517442970781
91.054413 0.010026151789507325
93.070198 0.0078026650661199865
98.984253 0.005140716894211919
104.31147 0.005284921992836514
110.059937 0.0720284980454363
111.068024 0.01009240818617268
121.064667 0.028581840290904555
138.055527 0.006253434614680079
151.038757 0.020099072800190194
156.06543 0.019266970406775302
163.112091 0.008697126421102272
237.272751 0.0048445118267668045
246.148193 0.05099014338663725
330.14209 1.0
END IONS

BEGIN IONS
CHARGE=1+
PRECURSORTYPE=M+Na
FORMULA=C20H21N5O4S
ONTOLOGY=
INCHIKEY=XQSRBHJKYQWLRM-UHFFFAOYSA-N
INCHI=InChI=1S/C20H21N5O4S/c1-10-13(23-19(29-10)12-7-6-8-14(27-4)16(12)28-5)9-30-20-24-15-17(25(20)3)21-11(2)22-18(15)26/h6-8H,9H2,1-5H3,(H,21,22,26)
SMILES=COc1cccc(-c2nc(CSc3nc4c(O)nc(C)nc4n3C)c(C)o2)c1OC
IONMODE=positive
INSTRUMENTTYPE=LC-ESI-Orbitrap
INSTRUMENT=Orbitrap
COMMENT=DB#=CCMSLIB00010118159; origin=GNPS
NUM_PEAKS=83
COMPOUND_NAME="8-{[2-(2,3-dimethoxyphenyl)-5-methyl(1,3-oxazol-4-yl)]methylthio}-2,9-dimethyl hydropurin-6-one "
PRECURSOR_MZ=450.121
COLLISION_ENERGY=205060
PARENT_MASS=449.1137235480092
55.018509 0.0013438843516979998
66.311737 0.0009079881611955868
69.033821 0.0044901329375103055
77.038963 0.0010951543750025135
79.054527 0.003882848180976426
91.054169 0.0020910023787124262
91.812424 0.0009516087168100938
96.044151 0.0018394881112330356
99.923981 0.000920672152544486
103.054207 0.014057265436649495
104.049492 0.028710369101054598
105.069878 0.013390273111082993
107.048943 0.0014224632249326434
109.064903 0.0010079132637734998
117.069313 0.0014716523621149597
120.020531 0.0020195389152588726
120.057007 0.003984938843052932
121.06501 0.0022995148218626226
122.036263 0.004202113524197497
130.041901 0.0009831640123610136
130.065414 0.012322961643919527
131.049255 0.007813648036564544
131.073059 0.0011081477319940687
132.044434 0.01626118627493139
135.080429 0.015807965608440236
136.038864 0.0013837925196006338
136.207916 0.0010410153875377
137.059753 0.17857698610422343
144.081024 0.0018546470277231834
145.06459 0.005142894443514629
146.06015 0.005677168908381674
147.031433 0.0018036016966849306
147.043503 0.0020006676110568516
147.067947 0.0017714276698486985
148.039337 0.004961606176918167
148.051926 0.004398560707284107
148.075562 0.0060097369742369575
149.047211 0.036928048666927976
149.059235 0.0019118796716145576
151.039536 0.001400498264304062
157.052292 0.013784714305469492
158.060043 0.03257527407475697
159.067963 0.005870831800684379
160.051651 0.004062589619359607
160.076279 0.005119073289030111
161.059937 0.011530366867434657
161.083344 0.002149781850817081
162.054672 0.00563014533069795
162.067688 0.04502445690088017
162.09137 0.0019038361649054995
163.075073 0.0044793051400173435
164.070587 0.1624491364212768
172.075607 0.010037058910333772
174.054779 0.0068391462621979005
175.062454 0.004468786708167036
175.075806 0.004081460923561628
186.053284 0.0017321382332313767
188.070129 0.008371743655916107
189.078445 0.009882994820291044
190.086334 0.03669509633800795
200.070618 0.007533672129960794
201.078964 0.0012795362980255356
201.26857 0.0012201380946355689
202.086807 0.002093167938211019
203.070389 0.0019121890372572137
204.066193 0.0020798652155768075
204.1008 0.0015755992180474015
216.065506 0.004766705822044839
217.073257 0.031508890704521474
217.095978 0.001884655495060823
218.023026 0.03140246892344778
219.031006 0.07124659813805194
220.629227 0.0011625960851015383
232.096741 0.2824007145108883
238.046982 0.012798147271039262
240.062515 0.01908229157031216
246.597397 0.0011536244814645122
250.590286 0.0009345936064640095
392.078979 0.03981628630676511
406.08963 0.0012161163412810398
420.0737 0.007552543434162815
435.095917 0.030647926121009608
450.120361 1.0
END IONS

BEGIN IONS
CHARGE=1+
PRECURSORTYPE=M+Na
FORMULA=C21H24N2O3
ONTOLOGY=
INCHIKEY=FTDAWMRTACXJBX-UHFFFAOYSA-N
INCHI=InChI=1S/C21H24N2O3/c1-13-6-5-7-17-16(14(2)23-20(13)17)10-11-22-21(24)15-8-9-18(25-3)19(12-15)26-4/h5-9,12,23H,10-11H2,1-4H3,(H,22,24)
SMILES=COc1ccc(C(O)=NCCc2c(C)[nH]c3c(C)cccc23)cc1OC
IONMODE=positive
INSTRUMENTTYPE=LC-ESI-Orbitrap
INSTRUMENT=Orbitrap
COMMENT=DB#=CCMSLIB00010121514; origin=GNPS
NUM_PEAKS=10
COMPOUND_NAME="(3,4-dimethoxyphenyl)-N-[2-(2,7-dimethylindol-3-yl)ethyl]carboxamide "
PRECURSOR_MZ=375.168
COLLISION_ENERGY=205060
PARENT_MASS=374.16072354800923
68.956978 0.00046058208694355106
69.355324 0.0004844936415191125
73.948532 0.0006201822250232901
126.96682 0.0005795705370933683
136.201584 0.0007033033433097652
254.599167 0.0006196129022953005
299.264648 0.0005569874022164493
360.147186 0.0007932563343321152
373.2966 0.0007553014857994781
375.16748 1.0
END IONS

BEGIN IONS
CHARGE=1+
PRECURSORTYPE=M+Na
FORMULA=C17H19N3O3
ONTOLOGY=
INCHIKEY=NCXYJHRCPJFINE-UHFFFAOYSA-N
INCHI=InChI=1S/C17H19N3O3/c1-11-3-5-13(6-4-11)18-10-17(23)20-19-9-15-12(2)7-14(21)8-16(15)22/h3-9,18,21-22H,10H2,1-2H3,(H,20,23)/b19-9-
SMILES=Cc1ccc(NCC(O)=NN=Cc2c(C)cc(O)cc2O)cc1
IONMODE=positive
INSTRUMENTTYPE=LC-ESI-Orbitrap
INSTRUMENT=Orbitrap
COMMENT=DB#=CCMSLIB00010116003; origin=GNPS
NUM_PEAKS=17
COMPOUND_NAME="N-[(1Z)-2-(2,4-dihydroxy-6-methylphenyl)-1-azavinyl]-2-[(4-methylphenyl)amino] acetamide "
PRECURSOR_MZ=336.132
COLLISION_ENERGY=205060
PARENT_MASS=335.12472354800923
59.933868 0.002467440249180699
62.43383 0.0032242860113982203
78.208153 0.0026729577163194405
85.560707 0.0026692657857720382
87.265717 0.0028107897900891353
104.313766 0.004358939332966601
108.408127 0.00291908641947961
108.874962 0.0026889560820248515
119.2994 0.002943699289795627
122.732117 0.002932623498153419
130.242126 0.00248343861488611
148.362244 0.00274433504023589
167.689285 0.0025929658877923856
185.449463 0.003619322579970292
313.137268 0.003234131159524627
336.131256 1.0
356.589142 0.003193519923503199
END IONS

BEGIN IONS
CHARGE=1+
PRECURSORTYPE=M+Na
FORMULA=C25H23BrN2O3S
ONTOLOGY=
INCHIKEY=IQQYFMUEUBWVGS-UHFFFAOYSA-N
INCHI=InChI=1S/C25H23BrN2O3S/c1-2-31-21-13-15(10-16(26)25(21)30)24-23-19(27-17-6-3-4-7-18(17)28-24)11-14(12-20(23)29)22-8-5-9-32-22/h3-10,13-14,24,27-28,30H,2,11-12H2,1H3
SMILES=CCOc1cc(C2Nc3ccccc3NC3=C2C(=O)CC(c2cccs2)C3)cc(Br)c1O
IONMODE=positive
INSTRUMENTTYPE=LC-ESI-Orbitrap
INSTRUMENT=Orbitrap
COMMENT=DB#=CCMSLIB00010123019; origin=GNPS
NUM_PEAKS=7
COMPOUND_NAME="11-(3-bromo-5-ethoxy-4-hydroxyphenyl)-3-(2-thienyl)-2,3,4-trihydro-5H,10H,11H- benzo[b]benzo[2,1-f]1,4-diazepin-1-one "
PRECURSOR_MZ=533.05
COLLISION_ENERGY=205060
PARENT_MASS=532.0427235480092
59.45113 0.0033816287840344903
66.468262 0.0035196544486889593
66.759598 0.003962148491257698
210.412827 0.006372184851547985
231.459625 0.0042977403033587595
326.913239 0.0039242590931172555
533.049683 1.0
END IONS

BEGIN IONS
CHARGE=1+
PRECURSORTYPE=M+Na
FORMULA=C28H27ClN2O2
ONTOLOGY=
INCHIKEY=SHUGUJZESGPCLW-UHFFFAOYSA-N
INCHI=InChI=1S/C28H27ClN2O2/c1-17(2)33-26-14-8-4-10-20(26)28-27-24(30-22-12-6-7-13-23(22)31-28)15-18(16-25(27)32)19-9-3-5-11-21(19)29/h3-14,17-18,28,30-31H,15-16H2,1-2H3
SMILES=CC(C)Oc1ccccc1C1Nc2ccccc2NC2=C1C(=O)CC(c1ccccc1Cl)C2
IONMODE=positive
INSTRUMENTTYPE=LC-ESI-Orbitrap
INSTRUMENT=Orbitrap
COMMENT=DB#=CCMSLIB00010115976; origin=GNPS
NUM_PEAKS=22
COMPOUND_NAME="3-(2-chlorophenyl)-11-[2-(methylethoxy)phenyl]-2,3,4-trihydro-5H,10H,11H-benzo [b]benzo[2,1-f]1,4-diazepin-1-one "
PRECURSOR_MZ=481.165
COLLISION_ENERGY=205060
PARENT_MASS=480.15772354800924
61.909069 0.0008805129416920897
66.751823 0.0010280351624328559
73.965752 0.0011679667543659316
76.627037 0.0009653299679345437
109.759247 0.0008729223128843993
118.665909 0.0009108754569228515
136.231781 0.0010135139594964046
233.108337 0.001494693820436085
261.102325 0.0012009694883124119
267.055847 0.0014141671496066734
308.083527 0.001804919519532998
323.093994 0.0012432129877639063
332.068909 0.004591340346634315
345.074463 0.012826512548299501
349.09552 0.004467580094335015
381.112793 0.0009834814716051079
399.126617 0.009880028461557755
421.1073 0.004119731278539114
438.113037 0.0015583890969527916
439.116913 0.011112020519779858
443.90686 0.0011432147039060715
481.164337 1.0
END IONS

BEGIN IONS
CHARGE=1+
PRECURSORTYPE=M+Na
FORMULA=C27H38N2O4
ONTOLOGY=
INCHIKEY=SGTNSNPWRIOYBX-UHFFFAOYSA-N
INCHI=InChI=1S/C27H38N2O4/c1-20(2)27(19-28,22-10-12-24(31-5)26(18-22)33-7)14-8-15-29(3)16-13-21-9-11-23(30-4)25(17-21)32-6/h9-12,17-18,20H,8,13-16H2,1-7H3
SMILES=COc1ccc(CCN(C)CCCC(C#N)(c2ccc(OC)c(OC)c2)C(C)C)cc1OC
IONMODE=positive
INSTRUMENTTYPE=LC-ESI-Orbitrap
INSTRUMENT=Orbitrap
COMMENT=DB#=CCMSLIB00010115850; origin=GNPS
NUM_PEAKS=22
COMPOUND_NAME=VERAPAMIL
PRECURSOR_MZ=477.272
COLLISION_ENERGY=205060
PARENT_MASS=476.2647235480092
54.54718 0.0004313830640946493
62.714169 0.0003864149376461913
70.065369 0.0005666462316829633
81.974167 0.0003932319142620479
104.276283 0.0005339965015754392
150.067444 0.0017331864055613135
151.074936 0.0007589567298987093
159.041458 0.0009449286358225185
164.083115 0.005539810067071874
165.09053 0.006134920166028063
177.090805 0.0005234720464492043
185.392822 0.0004710889629799899
187.072174 0.00040052727520182435
213.461304 0.00042229376194017373
303.20697 0.0005992959617904873
434.218842 0.0024211030633579374
450.260651 0.003251817441844612
462.248077 0.003044916221749313
470.011108 0.00046343481379727364
474.578766 0.000567244212087863
477.271881 1.0
479.992584 0.0007010722267044176
END IONS

BEGIN IONS
CHARGE=1+
PRECURSORTYPE=M+Na
FORMULA=C21H20O7
ONTOLOGY=
INCHIKEY=RHUOMQNPQOKXIP-UHFFFAOYSA-N
INCHI=InChI=1S/C21H20O7/c1-4-26-17(22)12-27-21-18(23)13-8-5-6-10-15(13)28-20(21)14-9-7-11-16(24-2)19(14)25-3/h5-11H,4,12H2,1-3H3
SMILES=CCOC(=O)COc1c(-c2cccc(OC)c2OC)oc2ccccc2c1=O
IONMODE=positive
INSTRUMENTTYPE=LC-ESI-Orbitrap
INSTRUMENT=Orbitrap
COMMENT=DB#=CCMSLIB00010116081; origin=GNPS
NUM_PEAKS=28
COMPOUND_NAME="ethyl 2-[2-(2,3-dimethoxyphenyl)-4-oxochromen-3-yloxy]acetate "
PRECURSOR_MZ=407.11
COLLISION_ENERGY=205060
PARENT_MASS=406.10272354800924
68.195686 0.0003397396955414285
88.161423 0.000313134784395306
92.370979 0.00043862964829211027
137.020889 0.0007040763844066306
143.009842 0.001852304191116831
144.01767 0.0007375082161487393
197.019897 0.0005976567398221406
199.036697 0.009697540310707211
209.602219 0.0003440567188594786
217.047455 0.00041634176046403785
272.068451 0.0003463658243551798
289.046661 0.07357201653279377
292.068848 0.000576673998578595
293.078827 0.003474199812119129
301.046417 0.000534106140744799
303.063202 0.0008683240622747681
307.056732 0.0008727414814839356
319.056274 0.0014950956105209674
320.064941 0.03258579556766196
330.075043 0.0005260744694554034
361.06839 0.0022014811004232994
375.082611 0.0004563997210198978
379.076111 0.008208267661871056
379.123535 0.0004856149253350738
392.086426 0.0007022692583665167
404.988617 0.0003610236244583265
407.10965 1.0
409.251556 0.0004077077138279377
END IONS

BEGIN IONS
CHARGE=1+
PRECURSORTYPE=M+Na
FORMULA=C30H22FN3O3
ONTOLOGY=
INCHIKEY=LCFQUJGFDLRXLW-UHFFFAOYSA-N
INCHI=InChI=1S/C30H22FN3O3/c31-22-17-15-20(16-18-22)19-34-25-14-8-7-13-24(25)26(29(36)32-23-11-5-2-6-12-23)27(30(34)37)33-28(35)21-9-3-1-4-10-21/h1-18H,19H2,(H,32,36)(H,33,35)
SMILES=O=c1c(N=C(O)c2ccccc2)c(C(O)=Nc2ccccc2)c2ccccc2n1Cc1ccc(F)cc1
IONMODE=positive
INSTRUMENTTYPE=LC-ESI-Orbitrap
INSTRUMENT=Orbitrap
COMMENT=DB#=CCMSLIB00010123851; origin=GNPS
NUM_PEAKS=20
COMPOUND_NAME={1-[(4-fluorophenyl)methyl]-2-oxo-3-(phenylcarbonylamino)(4-hydroquinolyl)}-N- benzamide
PRECURSOR_MZ=514.154
COLLISION_ENERGY=205060
PARENT_MASS=513.1467235480093
50.46439 0.007274736120120045
66.738998 0.008032003873238344
73.950417 0.008509951553485138
92.372711 0.010949346856562936
104.282097 0.00893824233188811
105.033493 0.07041659037090602
109.044769 0.010580023649099502
124.265678 0.007873722498611159
136.201324 0.012060420035318471
180.080627 0.03927860935846386
269.733032 0.009217562404759613
274.06369 0.0395051689731263
377.106232 0.0085068479971199
393.10141 0.012665613526540062
397.968201 0.008478915989832749
421.095337 0.5502729577823228
470.165771 0.009732752761389275
496.147003 0.01724025560890224
496.343628 0.008919620993696677
514.153137 1.0
END IONS

BEGIN IONS
CHARGE=1+
PRECURSORTYPE=M+Na
FORMULA=C28H32O16
ONTOLOGY=
INCHIKEY=LVAKTTFHRFASRZ-UHFFFAOYSA-N
INCHI=InChI=1S/C28H32O16/c1-9-18(32)21(35)23(37)27(41-9)44-28-24(38)22(36)19(33)16(43-28)8-40-26-20(34)17-13(31)6-11(29)7-15(17)42-25(26)10-3-4-12(30)14(5-10)39-2/h3-7,9,16,18-19,21-24,27-33,35-38H,8H2,1-2H3/t9-,16-,18-,19+,21+,22+,23+,24-,27-,28?/m0/s1
SMILES=COc1cc(-c2oc3cc(O)cc(O)c3c(=O)c2OCC2OC(OC3OC(C)C(O)C(O)C3O)C(O)C(O)C2O)ccc1O
IONMODE=positive
INSTRUMENTTYPE=LC-ESI-Orbitrap
INSTRUMENT=Orbitrap
COMMENT=DB#=CCMSLIB00010125001; origin=GNPS
NUM_PEAKS=14
COMPOUND_NAME=CCG-208435
PRECURSOR_MZ=647.158
COLLISION_ENERGY=205060
PARENT_MASS=646.1507235480093
57.033981 0.001660254260754557
62.052151 0.0011091729145270885
71.049667 0.009138603384613107
75.04464 0.001543806683000484
85.028587 0.011357338670449071
92.380402 0.0012910492316212424
159.319565 0.0011586339258139356
331.099609 0.05156875138987389
331.142731 0.0023819176774043794
338.038422 0.020701185779063505
339.049347 0.005393197514175253
418.53717 0.0017673548757457611
501.09967 0.006237150360305942
647.157593 1.0
END IONS

BEGIN IONS
CHARGE=1+
PRECURSORTYPE=M+Na
FORMULA=C16H16ClN3O
ONTOLOGY=
INCHIKEY=DQWVBJJWBWNKEX-UHFFFAOYSA-N
INCHI=InChI=1S/C16H16ClN3O/c17-14-5-6-15(18-9-14)19-16(21)11-20-8-7-12-3-1-2-4-13(12)10-20/h1-6,9H,7-8,10-11H2,(H,18,19,21)
SMILES=OC(CN1CCc2ccccc2C1)=Nc1ccc(Cl)cn1
IONMODE=positive
INSTRUMENTTYPE=LC-ESI-Orbitrap
INSTRUMENT=Orbitrap
COMMENT=DB#=CCMSLIB00010115436; origin=GNPS
NUM_PEAKS=10
COMPOUND_NAME="N-(5-chloro(2-pyridyl))-2-(2-1,2,3,4-tetrahydroisoquinolyl)acetamide "
PRECURSOR_MZ=324.087
COLLISION_ENERGY=205060
PARENT_MASS=323.0797235480092
56.715382 0.003108872987426872
59.268459 0.003484889117809401
88.082603 0.0034650241146948523
92.372467 0.004794560394575719
118.648529 0.003408266962938999
151.531418 0.004468206771979562
190.997925 0.021056903301421626
311.666321 0.0036168494956417604
324.086853 1.0
339.472321 0.0035388084119774618
END IONS

BEGIN IONS
CHARGE=1+
PRECURSORTYPE=M+Na
FORMULA=C19H18N2O4
ONTOLOGY=
INCHIKEY=BDWXGEIHUXSMQS-UHFFFAOYSA-N
INCHI=InChI=1S/C19H18N2O4/c1-13(22)21-16(19(23)20-11-14-5-3-2-4-6-14)9-15-7-8-17-18(10-15)25-12-24-17/h2-10H,11-12H2,1H3,(H,20,23)(H,21,22)/b16-9+
SMILES=CC(O)=NC(=Cc1ccc2c(c1)OCO2)C(O)=NCc1ccccc1
IONMODE=positive
INSTRUMENTTYPE=LC-ESI-Orbitrap
INSTRUMENT=Orbitrap
COMMENT=DB#=CCMSLIB00010121851; origin=GNPS
NUM_PEAKS=11
COMPOUND_NAME="(2E)-3-(2H-benzo[3,4-d]1,3-dioxolen-5-yl)-2-(acetylamino)-N-benzylprop-2-enami de "
PRECURSOR_MZ=361.116
COLLISION_ENERGY=205060
PARENT_MASS=360.1087235480092
74.258263 0.001460367082510003
77.475609 0.0011570865406356603
82.395508 0.0013320749894318773
84.815514 0.0013797544263229814
87.087509 0.0013777882639769566
91.054237 0.0016269993413356141
104.283157 0.0019366699108345376
106.873413 0.0013094641224525908
278.576538 0.0013556689375841763
290.955322 0.0012691577943590802
361.115723 1.0
END IONS

BEGIN IONS
CHARGE=1+
PRECURSORTYPE=M+Na
FORMULA=C24H19Cl2N3O3
ONTOLOGY=
INCHIKEY=FMBYXXBOTCCMFU-UHFFFAOYSA-N
INCHI=InChI=1S/C24H19Cl2N3O3/c1-14-19(12-23(30)28-22-10-7-17(26)13-27-22)20-11-18(32-2)8-9-21(20)29(14)24(31)15-3-5-16(25)6-4-15/h3-11,13H,12H2,1-2H3,(H,27,28,30)
SMILES=COc1ccc2c(c1)c(CC(O)=Nc1ccc(Cl)cn1)c(C)n2C(=O)c1ccc(Cl)cc1
IONMODE=positive
INSTRUMENTTYPE=LC-ESI-Orbitrap
INSTRUMENT=Orbitrap
COMMENT=DB#=CCMSLIB00010120024; origin=GNPS
NUM_PEAKS=14
COMPOUND_NAME=N-(5-chloro(2-pyridyl))-2-{1-[(4-chlorophenyl)carbonyl]-5-methoxy-2-methylindo l-3-yl}acetamide
PRECURSOR_MZ=490.07
COLLISION_ENERGY=205060
PARENT_MASS=489.0627235480092
64.353691 0.00680874733469989
66.746147 0.008140109805214202
79.37056 0.005652496369011444
88.479538 0.006445648479105077
104.29464 0.006782995642813733
119.849747 0.006443073309916461
136.213699 0.006978708501148526
157.978088 0.007102316622202079
226.331085 0.007377859725383957
257.906738 0.0070636890843728435
417.214844 0.007686880028017841
478.36615 0.0072928791421596395
490.068268 1.0
490.341339 0.023434039616402797
END IONS

BEGIN IONS
CHARGE=1+
PRECURSORTYPE=M+Na
FORMULA=C23H34O5
ONTOLOGY=
INCHIKEY=SHIBSTMRCDJXLN-UHFFFAOYSA-N
INCHI=InChI=1S/C23H34O5/c1-21-7-5-15(24)10-14(21)3-4-17-18(21)11-19(25)22(2)16(6-8-23(17,22)27)13-9-20(26)28-12-13/h9,14-19,24-25,27H,3-8,10-12H2,1-2H3/t14-,15+,16-,17-,18+,19-,21+,22+,23+/m1/s1
SMILES=CC12CCC(O)CC1CCC1C2CC(O)C2(C)C(C3=CC(=O)OC3)CCC12O
IONMODE=positive
INSTRUMENTTYPE=LC-ESI-Orbitrap
INSTRUMENT=Orbitrap
COMMENT=DB#=CCMSLIB00010121327; origin=GNPS
NUM_PEAKS=12
COMPOUND_NAME=Digoxigenin
PRECURSOR_MZ=413.23
COLLISION_ENERGY=205060
PARENT_MASS=412.22272354800924
51.22327 0.0005280310558819732
57.655319 0.0005209005725402834
85.468117 0.0005158341764817144
92.375816 0.0006351759503057851
142.647461 0.000493316860665852
144.317688 0.0005528001032794219
208.878159 0.0024264284234576388
234.398376 0.0006623843735832855
256.395508 0.000564058761187353
341.817749 0.000633674795918061
413.228821 1.0
431.23938 0.07059309859281787
END IONS

BEGIN IONS
CHARGE=1+
PRECURSORTYPE=M+Na
FORMULA=C22H30O6
ONTOLOGY=
INCHIKEY=BOJKFRKNLSCGHY-UHFFFAOYSA-N
INCHI=InChI=1S/C22H30O6/c1-11-6-16-20(26,18(11)25)9-14(10-23)7-15-17-19(4,5)21(17,28-13(3)24)8-12(2)22(15,16)27/h6-7,12,15-17,23,26-27H,8-10H2,1-5H3/t12-,15+,16-,17-,20-,21+,22-/m1/s1
SMILES=CC(=O)OC12CC(C)C3(O)C(C=C(CO)CC4(O)C(=O)C(C)=CC43)C1C2(C)C
IONMODE=positive
INSTRUMENTTYPE=LC-ESI-Orbitrap
INSTRUMENT=Orbitrap
COMMENT=DB#=CCMSLIB00010124932; origin=GNPS
NUM_PEAKS=90
COMPOUND_NAME=12-Deoxyphorbol-13-acetate
PRECURSOR_MZ=413.193
COLLISION_ENERGY=205060
PARENT_MASS=412.1857235480092
53.03931 0.0017374402990883522
55.054909 0.003347084922550012
56.811859 0.0015532983482989815
67.054626 0.00611502307873724
69.033867 0.006292775245745275
69.070183 0.002029627684725745
79.054672 0.007070005309329433
81.070213 0.0034928881706513745
83.010803 0.0038210907012381076
91.054443 0.009957025799623351
93.070099 0.003130994052853968
95.085617 0.0019924507609070706
105.069901 0.013484186446920066
107.085747 0.006076684376049231
109.065071 0.003489402834043374
109.101578 0.0014098186579362857
117.070038 0.007969222154193614
118.264023 0.0015050845252216384
118.642143 0.0017914630165123632
119.085617 0.00893117505800181
121.065079 0.0026035464461765276
121.101608 0.007271573943158807
128.061691 0.0022939323774991316
129.070221 0.00664595602202268
131.086029 0.009246598021025874
133.101776 0.009020051141505827
135.080856 0.0022056371834297804
142.078339 0.005640436410614477
143.085648 0.011836784010205065
145.065002 0.009441195981639247
145.101608 0.006030213221275889
147.080597 0.008415926129452373
155.086197 0.009566668099527272
156.093384 0.003211737684272651
157.101868 0.006076103486614565
159.080917 0.008554758704337733
159.116241 0.001934361817440392
165.070312 0.0017635803236483575
167.08548 0.003696199472784749
168.093094 0.0018460666233710407
169.101624 0.006196928489025256
171.08107 0.002557075291403185
171.116928 0.0018019190263363653
173.096573 0.0033563791535046804
175.075958 0.002655826495296538
179.085953 0.007706079240289562
180.093933 0.0021144375421870954
181.101868 0.008324726488209687
182.110062 0.002710430102155216
183.080887 0.002751092362581891
183.117538 0.006267797000054603
185.096588 0.0030670962150406217
189.127716 0.0021057242006670934
192.093399 0.0032105759054033172
193.101074 0.0028329977728699077
194.108429 0.0022422332178137876
195.079453 0.0027336656795418873
195.116776 0.0033209448979900063
196.089005 0.001953531168784396
197.096939 0.002756320367493892
197.133163 0.002957889001323266
201.127884 0.0027220478908485516
205.10083 0.0023775804560911486
207.116165 0.00710660134371344
209.095612 0.009240789126679206
210.103775 0.0030456033059579504
211.111023 0.0030885891241232925
212.174744 0.002818475537003238
217.122925 0.0018303826086350375
219.11673 0.0032744737432166635
219.137009 0.016098188902920595
221.132782 0.002115599321056429
223.112289 0.0037403470698194248
225.126282 0.002726695006325886
234.140182 0.0018565226331950428
235.111237 0.00185884619093371
237.126923 0.0020464734783310814
247.111511 0.0030641917678672875
277.160034 0.003397622303366022
285.184998 0.00238629379761115
295.169678 0.010608783745319483
313.180542 0.010577415715847477
317.152496 0.006832421530550718
324.770691 0.002083069512715089
335.161438 0.036090079686412646
353.172119 1.0
371.181488 0.002896314721248587
394.201782 0.0017200136160483487
413.193146 0.36918718464964817
431.199554 0.0015079889723949723
END IONS

BEGIN IONS
CHARGE=1+
PRECURSORTYPE=M+Na
FORMULA=C20H21N5O3S
ONTOLOGY=
INCHIKEY=GGNDGAWAIQTBPJ-UHFFFAOYSA-N
INCHI=InChI=1S/C20H21N5O3S/c1-5-27-15-9-7-6-8-13(15)19-23-14(11(2)28-19)10-29-20-24-16-17(25(20)4)21-12(3)22-18(16)26/h6-9H,5,10H2,1-4H3,(H,21,22,26)
SMILES=CCOc1ccccc1-c1nc(CSc2nc3c(O)nc(C)nc3n2C)c(C)o1
IONMODE=positive
INSTRUMENTTYPE=LC-ESI-Orbitrap
INSTRUMENT=Orbitrap
COMMENT=DB#=CCMSLIB00010116936; origin=GNPS
NUM_PEAKS=65
COMPOUND_NAME="8-{[2-(2-ethoxyphenyl)-5-methyl(1,3-oxazol-4-yl)]methylthio}-2,9-dimethylhydro purin-6-one "
PRECURSOR_MZ=434.126
COLLISION_ENERGY=205060
PARENT_MASS=433.1187235480092
51.651989 0.0005398008605332514
54.034191 0.00231712299657744
58.025379 0.0005055821055073718
69.033737 0.005237522644261138
77.038673 0.000732965732654342
79.054131 0.0007711196445081978
80.049591 0.002398734727314163
91.048424 0.0007319391700035656
91.05439 0.009642845166292885
91.66256 0.0006323625928782558
94.064987 0.000964113422854159
96.044342 0.010130804612961928
98.060127 0.0007998633987299367
100.143127 0.0005374055476814398
103.054077 0.006426624381410456
104.0495 0.0010467517162416583
104.283623 0.00079609933567709
105.069519 0.0008318579346791342
107.049103 0.006929126798965499
110.060631 0.0006296250924761854
117.069099 0.0010731001576115857
119.085129 0.002486848021505803
120.044273 0.0201349998323281
121.028458 0.000795243866801443
121.064583 0.003457805195365138
122.059807 0.005873136018866853
123.132538 0.0006472477513145135
128.061768 0.0014592588080786374
129.069962 0.005021431206272709
130.04129 0.0008667610648055313
131.049026 1.0
132.044296 0.004225502964370748
132.055283 0.0006467344699891252
133.064636 0.0010542798423473518
136.164154 0.0007040508846574737
142.026443 0.0012539462779233596
144.321548 0.0006450235322378313
145.064682 0.0075628581420447896
147.080353 0.0036275302202935012
148.075165 0.0014009158307595126
156.057785 0.0009742079555867934
157.064407 0.0031565090573622678
157.96669 0.000748877453741376
159.067703 0.0027795894707522036
170.058487 0.0007653024561537983
170.096786 0.001142393136538992
171.079071 0.0008469141868905212
172.075348 0.012119085373740665
173.059311 0.01022387962663232
173.083633 0.005104240593435337
174.054642 0.0009502548270686777
174.090851 0.007899912879049705
183.067749 0.001399375986783348
188.069931 0.0032134832844803573
198.091141 0.0067554666172091596
210.052139 0.03645666160457217
216.101562 0.020861977282852915
218.022964 0.03377339792921782
219.006653 0.0013755939520403617
219.030716 0.04210070305854076
238.316513 0.0007459688595641762
279.506744 0.0006619618159756417
405.085388 0.014355623202232158
406.093536 0.004030969342048622
434.124756 0.8350385679587897
END IONS

BEGIN IONS
CHARGE=1+
PRECURSORTYPE=M+Na
FORMULA=C17H20N4O6
ONTOLOGY=
INCHIKEY=AUNGANRZJHBGPY-UHFFFAOYSA-N
INCHI=InChI=1S/C17H20N4O6/c1-7-3-9-10(4-8(7)2)21(5-11(23)14(25)12(24)6-22)15-13(18-9)16(26)20-17(27)19-15/h3-4,11-12,14,22-25H,5-6H2,1-2H3,(H,20,26,27)
SMILES=Cc1cc2nc3c(O)nc(=O)nc-3n(CC(O)C(O)C(O)CO)c2cc1C
IONMODE=positive
INSTRUMENTTYPE=LC-ESI-Orbitrap
INSTRUMENT=Orbitrap
COMMENT=DB#=CCMSLIB00010124173; origin=GNPS
NUM_PEAKS=14
COMPOUND_NAME=83-88-5
PRECURSOR_MZ=399.127
COLLISION_ENERGY=205060
PARENT_MASS=398.11972354800923
73.629333 0.0011305937567985113
75.705818 0.0012535765735545385
78.239464 0.0010542595946740807
92.366302 0.0009889514781898456
94.108047 0.0011199917898367848
104.269463 0.0011547662414712477
130.477448 0.001242550527914343
265.070099 0.0017467800766140542
279.084167 0.01647248810777366
338.910034 0.002696716316384746
356.121826 0.006807735025463804
358.349762 0.001179786883500922
382.101654 0.006447268148765104
399.126801 1.0
END IONS

BEGIN IONS
CHARGE=1+
PRECURSORTYPE=M+Na
FORMULA=C17H14FNO6
ONTOLOGY=
INCHIKEY=ZYJFTUZFDDQOJY-UHFFFAOYSA-N
INCHI=InChI=1S/C17H14FNO6/c1-23-17(22)13-12(9-4-2-3-5-10(9)18)15-14(25-16(13)19)11(21)6-8(7-20)24-15/h2-6,12,20H,7,19H2,1H3
SMILES=COC(=O)C1=C(N)Oc2c(oc(CO)cc2=O)C1c1ccccc1F
IONMODE=positive
INSTRUMENTTYPE=LC-ESI-Orbitrap
INSTRUMENT=Orbitrap
COMMENT=DB#=CCMSLIB00010121371; origin=GNPS
NUM_PEAKS=9
COMPOUND_NAME="methyl 2-amino-4-(2-fluorophenyl)-6-(hydroxymethyl)-8-oxo-4H-pyrano[3,2-b]pyra n-3-carboxylate "
PRECURSOR_MZ=370.07
COLLISION_ENERGY=205060
PARENT_MASS=369.0627235480092
67.496437 0.015728465966458178
68.622803 0.014227082595754167
84.578568 0.013328875077036046
85.129059 0.014627014410657856
136.196014 0.016633229744437015
229.048386 0.07101740031207794
271.037354 0.02612669315395408
338.042908 0.847802997521734
370.069031 1.0
END IONS

BEGIN IONS
CHARGE=1+
PRECURSORTYPE=M+Na
FORMULA=C18H25N3O4S
ONTOLOGY=
INCHIKEY=DQCDVLOLHGLVKW-UHFFFAOYSA-N
INCHI=InChI=1S/C18H25N3O4S/c1-18(2,3)16-20-21-17(26-16)19-14(22)8-7-11-9-12(23-4)15(25-6)13(10-11)24-5/h9-10H,7-8H2,1-6H3,(H,19,21,22)
SMILES=COc1cc(CCC(O)=Nc2nnc(C(C)(C)C)s2)cc(OC)c1OC
IONMODE=positive
INSTRUMENTTYPE=LC-ESI-Orbitrap
INSTRUMENT=Orbitrap
COMMENT=DB#=CCMSLIB00010116469; origin=GNPS
NUM_PEAKS=16
COMPOUND_NAME="N-[5-(tert-butyl)(1,3,4-thiadiazol-2-yl)]-3-(3,4,5-trimethoxyphenyl)propanamid e "
PRECURSOR_MZ=402.146
COLLISION_ENERGY=205060
PARENT_MASS=401.13872354800924
51.446468 0.0009577508251041887
54.330479 0.0009452862522836276
57.416481 0.0008506228749166642
63.654881 0.0010254637747510202
92.361794 0.0009136194997124726
116.205856 0.0008573604818466972
118.633202 0.001202325956664386
138.071091 0.019405655479881
152.809402 0.0011005880920208879
180.105881 0.002006122463417321
215.427002 0.0009809955690128025
245.077499 0.004960226221890283
345.079865 0.0009998608684168948
387.12088 0.004060081936037876
402.145142 1.0
409.399597 0.0010662262966777197
END IONS

BEGIN IONS
CHARGE=1+
PRECURSORTYPE=M+Na
FORMULA=C10H9NO3
ONTOLOGY=
INCHIKEY=ILGMGHZPXRDCCS-UHFFFAOYSA-N
INCHI=InChI=1S/C10H9NO3/c12-9(13)5-7-6-3-1-2-4-8(6)11-10(7)14/h1-4,7H,5H2,(H,11,14)(H,12,13)
SMILES=C1=CC=C2C(=C1)C(C(=O)N2)CC(=O)O
IONMODE=positive
INSTRUMENTTYPE=LC-ESI-Orbitrap
INSTRUMENT=Orbitrap
COMMENT=DB#=CCMSLIB00010102119; origin=GNPS
NUM_PEAKS=12
COMPOUND_NAME="(2-Oxo-2,3-dihydro-1H-indol-3-yl)acetic acid "
PRECURSOR_MZ=214.047
COLLISION_ENERGY=205060
PARENT_MASS=213.03972354800925
50.062153 0.016355261718644643
54.309982 0.01711830690911717
55.208748 0.01676808849560055
55.815075 0.01675642274562568
65.832092 0.015738631817626882
66.770813 0.017917692741687877
70.119553 0.017406549962895285
70.124046 0.015505731402809258
75.788696 0.018594822157498594
82.824829 0.01671933729403195
167.675247 0.019926076310986505
214.047455 1.0
END IONS

BEGIN IONS
CHARGE=1+
PRECURSORTYPE=M+Na
FORMULA=C25H34O8
ONTOLOGY=
INCHIKEY=VWQWXZAWFPZJDA-UHFFFAOYSA-N
INCHI=InChI=1S/C25H34O8/c1-23-9-7-15(26)11-14(23)3-4-16-17-8-10-25(32,24(17,2)12-18(27)22(16)23)19(28)13-33-21(31)6-5-20(29)30/h11,16-18,22,27,32H,3-10,12-13H2,1-2H3,(H,29,30)/t16-,17-,18-,22+,23-,24-,25-/m0/s1
SMILES=CC12CCC(=O)C=C1CCC1C2C(O)CC2(C)C1CCC2(O)C(=O)COC(=O)CCC(=O)O
IONMODE=positive
INSTRUMENTTYPE=LC-ESI-Orbitrap
INSTRUMENT=Orbitrap
COMMENT=DB#=CCMSLIB00010121870; origin=GNPS
NUM_PEAKS=10
COMPOUND_NAME=2203-97-6
PRECURSOR_MZ=485.215
COLLISION_ENERGY=205060
PARENT_MASS=484.2077235480092
54.646931 0.000873916209617647
73.947258 0.0008964509617554387
92.369888 0.001054811617189509
107.441643 0.0009328769994576225
157.955856 0.0010038769034534044
299.748199 0.0009412117707962577
367.190216 0.0012286070343617928
467.130585 0.0009961595225842978
467.200684 0.006773082145962837
485.213837 1.0
END IONS

BEGIN IONS
CHARGE=1+
PRECURSORTYPE=M+Na
FORMULA=C17H14N2O3S
ONTOLOGY=
INCHIKEY=JOIUJUJSHIHBDT-UHFFFAOYSA-N
INCHI=InChI=1S/C17H14N2O3S/c1-22-14-9-11(7-8-13(14)20)10-15-16(21)19-17(23-15)18-12-5-3-2-4-6-12/h2-10,20H,1H3,(H,18,19,21)/b15-10-
SMILES=COc1cc(C=C2SC(=Nc3ccccc3)N=C2O)ccc1O
IONMODE=positive
INSTRUMENTTYPE=LC-ESI-Orbitrap
INSTRUMENT=Orbitrap
COMMENT=DB#=CCMSLIB00010116310; origin=GNPS
NUM_PEAKS=8
COMPOUND_NAME="5-[(4-hydroxy-3-methoxyphenyl)methylene]-2-(phenylamino)-1,3-thiazolin-4-one "
PRECURSOR_MZ=349.062
COLLISION_ENERGY=205060
PARENT_MASS=348.05472354800924
59.759369 0.003116510820096574
64.187286 0.002760698653591621
69.965553 0.002652188560260323
70.878052 0.00249951738243373
82.396156 0.003203571243815871
104.280243 0.0044842426941794425
349.060913 1.0
367.070892 0.0033499336952859935
END IONS

BEGIN IONS
CHARGE=1+
PRECURSORTYPE=M+Na
FORMULA=C15H15N5O2S
ONTOLOGY=
INCHIKEY=OTWOCXUXCQGJON-UHFFFAOYSA-N
INCHI=InChI=1S/C15H15N5O2S/c1-9-4-3-5-10(6-9)18-11(21)7-23-15-19-12-13(20(15)2)16-8-17-14(12)22/h3-6,8H,7H2,1-2H3,(H,18,21)(H,16,17,22)
SMILES=Cc1cccc(N=C(O)CSc2nc3c(O)ncnc3n2C)c1
IONMODE=positive
INSTRUMENTTYPE=LC-ESI-Orbitrap
INSTRUMENT=Orbitrap
COMMENT=DB#=CCMSLIB00010122074; origin=GNPS
NUM_PEAKS=18
COMPOUND_NAME=2-(9-methyl-6-oxohydropurin-8-ylthio)-N-(3-methylphenyl)acetamide
PRECURSOR_MZ=352.084
COLLISION_ENERGY=205060
PARENT_MASS=351.0767235480092
51.298229 0.0005550763908170032
63.052971 0.000594992492023947
66.380653 0.0005526505504121613
90.996696 0.0005517684266285824
92.380234 0.0008752873242561326
101.926132 0.0005696314332460545
103.293159 0.000542726657846899
105.322502 0.0007906034410325611
170.057556 0.0011754299416188428
173.043503 0.001399048320756086
181.054459 0.00075642114441888
204.007568 0.020316854452442613
213.037796 0.0009685719143695979
215.514145 0.0006966572580814117
217.015198 0.001401474161160928
245.01062 0.009205402743537285
350.381989 0.0008472798941275035
352.083191 1.0
END IONS

BEGIN IONS
CHARGE=1+
PRECURSORTYPE=M+Na
FORMULA=C28H30ClNO6
ONTOLOGY=
INCHIKEY=FNOWZTMNFWPNII-UHFFFAOYSA-N
INCHI=InChI=1S/C28H30ClNO6/c1-6-36-28(32)24-15(2)30-20-11-17(16-7-9-19(29)10-8-16)12-21(31)26(20)25(24)18-13-22(33-3)27(35-5)23(14-18)34-4/h7-10,13-14,17,25,30H,6,11-12H2,1-5H3
SMILES=CCOC(=O)C1=C(C)NC2=C(C(=O)CC(c3ccc(Cl)cc3)C2)C1c1cc(OC)c(OC)c(OC)c1
IONMODE=positive
INSTRUMENTTYPE=LC-ESI-Orbitrap
INSTRUMENT=Orbitrap
COMMENT=DB#=CCMSLIB00010122257; origin=GNPS
NUM_PEAKS=10
COMPOUND_NAME="ethyl 7-(4-chlorophenyl)-2-methyl-5-oxo-4-(3,4,5-trimethoxyphenyl)-1,4,6,7,8-p entahydroquinoline-3-carboxylate "
PRECURSOR_MZ=534.165
COLLISION_ENERGY=205060
PARENT_MASS=533.1577235480092
52.98904 0.0008209640165929078
73.945541 0.0007328946846839898
92.370338 0.0005445590461822304
104.274139 0.0007047340225461077
130.005661 0.0005610608354604797
357.492432 0.0006358569890368928
506.134125 0.0010575494520060705
519.14209 0.0064783872299109995
534.165039 1.0
552.176575 0.00671838064354467
END IONS

BEGIN IONS
CHARGE=1+
PRECURSORTYPE=M+Na
FORMULA=C20H20ClNO5S
ONTOLOGY=
INCHIKEY=SVHQWHSBTPUXGM-UHFFFAOYSA-N
INCHI=InChI=1S/C20H20ClNO5S/c1-24-16-11-13(19(28)22-7-9-26-10-8-22)12-17(25-2)18(16)27-20(23)14-5-3-4-6-15(14)21/h3-6,11-12H,7-10H2,1-2H3
SMILES=COc1cc(C(=S)N2CCOCC2)cc(OC)c1OC(=O)c1ccccc1Cl
IONMODE=positive
INSTRUMENTTYPE=LC-ESI-Orbitrap
INSTRUMENT=Orbitrap
COMMENT=DB#=CCMSLIB00010116863; origin=GNPS
NUM_PEAKS=18
COMPOUND_NAME="2,6-dimethoxy-4-(morpholin-4-ylthioxomethyl)phenyl 2-chlorobenzoate "
PRECURSOR_MZ=444.064
COLLISION_ENERGY=205060
PARENT_MASS=443.05672354800924
65.571671 0.002412531286693865
70.52359 0.0030695387177107126
71.940552 0.011614840168488242
72.937492 0.016531358176273516
73.028801 0.0032492959508369224
84.959969 0.002822503923648378
90.947884 0.004208001194176706
130.546539 0.00231056373340005
182.838501 0.011552818667000251
337.402344 0.0033743901657025304
411.867859 0.004665278366164432
412.363739 0.025633801928553333
420.873779 0.004082906979311099
421.368805 0.0064933358422257096
423.368683 0.0035604546701665015
423.872711 0.014857828847987403
444.064117 1.0
537.852356 0.003598298298193072
END IONS

BEGIN IONS
CHARGE=1+
PRECURSORTYPE=M+Na
FORMULA=C11H15N3O3S
ONTOLOGY=
INCHIKEY=IQOMOUXYZRGOAZ-UHFFFAOYSA-N
INCHI=InChI=1S/C11H15N3O3S/c1-12-11(18)14-13-10(15)7-4-5-8(16-2)9(6-7)17-3/h4-6H,1-3H3,(H,13,15)(H2,12,14,18)
SMILES=CN=C(S)NN=C(O)c1ccc(OC)c(OC)c1
IONMODE=positive
INSTRUMENTTYPE=LC-ESI-Orbitrap
INSTRUMENT=Orbitrap
COMMENT=DB#=CCMSLIB00010121942; origin=GNPS
NUM_PEAKS=28
COMPOUND_NAME="(3,4-dimethoxyphenyl)-N-{[(methylamino)thioxomethyl]amino}carboxamide "
PRECURSOR_MZ=292.073
COLLISION_ENERGY=205060
PARENT_MASS=291.0657235480092
51.42778 0.0024587543089465047
57.07029 0.0028030032511103488
81.069817 0.015570554695905655
84.080879 0.013039449761826409
85.064301 0.003583689835203947
86.412613 0.002577782756745529
99.043587 0.010955284979776833
104.298698 0.003069066840308167
114.565361 0.003579022052937319
116.159981 0.0028473471826433185
123.116127 0.01233928242183215
143.093384 0.0058545659079186595
145.049072 0.01390765726341929
157.981644 0.0035545161960375197
158.361008 0.0031682572134740204
161.74762 0.002590619157978757
174.534698 0.003064399058041539
197.985764 0.002999050106308741
202.107208 0.010559690432680078
203.055298 0.00335730239527247
214.279404 0.002699145095677867
219.07341 0.015835451339536816
220.143341 0.0025416074441791587
258.083923 0.0060984575313499925
261.029541 1.0
279.040527 0.004677117831161648
292.071198 0.08679741124795493
302.055939 0.014922899906410965
END IONS

BEGIN IONS
CHARGE=1+
PRECURSORTYPE=M+Na
FORMULA=C18H25NO5
ONTOLOGY=
INCHIKEY=YWDCGKQJXZBZGP-UHFFFAOYSA-N
INCHI=InChI=1S/C18H25NO5/c1-23-15-8-7-12(11-16(15)24-2)9-10-19-17(20)13-5-3-4-6-14(13)18(21)22/h7-8,11,13-14H,3-6,9-10H2,1-2H3,(H,19,20)(H,21,22)
SMILES=COc1ccc(CCN=C(O)C2CCCCC2C(=O)O)cc1OC
IONMODE=positive
INSTRUMENTTYPE=LC-ESI-Orbitrap
INSTRUMENT=Orbitrap
COMMENT=DB#=CCMSLIB00010119222; origin=GNPS
NUM_PEAKS=19
COMPOUND_NAME="2-{N-[2-(3,4-dimethoxyphenyl)ethyl]carbamoyl}cyclohexanecarboxylic acid "
PRECURSOR_MZ=358.162
COLLISION_ENERGY=205060
PARENT_MASS=357.1547235480092
51.473671 0.0019474091511255856
53.433392 0.001868710366095946
67.894417 0.0017390888378118342
74.202827 0.001800041818374006
76.614632 0.002701991619350951
92.046837 0.00178924002435033
92.374107 0.0018471067780485941
93.830688 0.0019057450884628353
118.652527 0.002691189825327275
136.2117 0.001864081025800085
160.043259 0.002279178538995634
160.059113 0.0017537484154153946
177.052032 0.031721011263956496
197.895203 0.0021040351644688875
204.099289 1.0
222.109879 0.010430675243291122
238.441925 0.001966698069025007
245.125504 0.013723679307080345
358.161682 0.5712173853331698
END IONS

BEGIN IONS
CHARGE=1+
PRECURSORTYPE=M+Na
FORMULA=C24H32O6
ONTOLOGY=
INCHIKEY=JEJFTTRHGBKKEI-UHFFFAOYSA-N
INCHI=InChI=1S/C24H32O6/c1-13-9-15-11-17(25-3)21(27-5)23(29-7)19(15)20-16(10-14(13)2)12-18(26-4)22(28-6)24(20)30-8/h11-14H,9-10H2,1-8H3
SMILES=COc1cc2c(c(OC)c1OC)-c1c(cc(OC)c(OC)c1OC)CC(C)C(C)C2
IONMODE=positive
INSTRUMENTTYPE=LC-ESI-Orbitrap
INSTRUMENT=Orbitrap
COMMENT=DB#=CCMSLIB00010117808; origin=GNPS
NUM_PEAKS=14
COMPOUND_NAME=Schizandrin A
PRECURSOR_MZ=439.209
COLLISION_ENERGY=205060
PARENT_MASS=438.2017235480092
66.752533 0.0018976637478974967
73.966743 0.002097865340852874
81.042328 0.00216511452458692
85.292381 0.00211718981893737
92.391167 0.002668323933907193
102.71611 0.001859014791728505
118.011253 0.0018010413574750172
176.742142 0.001807225190462056
183.678665 0.0019270369545859305
282.738525 0.0021581577124765014
393.164856 0.003558795884040764
424.184631 0.004598452804986643
439.208069 1.0
457.219727 0.03615068764222816
END IONS

BEGIN IONS
CHARGE=1+
PRECURSORTYPE=M+Na
FORMULA=C18H21NO3
ONTOLOGY=
INCHIKEY=BWFSLFAIZRXQIP-UHFFFAOYSA-N
INCHI=InChI=1S/C18H21NO3/c1-5-13-8-6-7-12(2)17(13)19-18(20)14-9-10-15(21-3)16(11-14)22-4/h6-11H,5H2,1-4H3,(H,19,20)
SMILES=CCc1cccc(C)c1N=C(O)c1ccc(OC)c(OC)c1
IONMODE=positive
INSTRUMENTTYPE=LC-ESI-Orbitrap
INSTRUMENT=Orbitrap
COMMENT=DB#=CCMSLIB00010116221; origin=GNPS
NUM_PEAKS=26
COMPOUND_NAME="(3,4-dimethoxyphenyl)-N-(6-ethyl-2-methylphenyl)carboxamide "
PRECURSOR_MZ=322.141
COLLISION_ENERGY=205060
PARENT_MASS=321.13372354800924
51.747231 0.0014580213068472114
80.164833 0.0014837133122542108
86.315659 0.001472035127978302
91.448761 0.0014638603989851659
95.934349 0.001538600778350982
104.275421 0.00219433082544326
121.064713 0.11510018422335695
122.068008 0.06942213424656735
122.077827 0.001998721238821788
123.476044 0.0015905686983787761
129.070023 0.01247989162644992
130.064667 0.07236737232095154
131.068619 0.043584151536119164
144.080536 0.02392100876155775
145.083832 0.0023811817738578008
156.080658 0.16688534066723307
157.08812 0.3767755949305002
158.096909 0.007371269914953623
173.107208 0.07693295846361807
174.110596 0.09301498602997206
215.047806 0.0016542148026824788
307.118927 0.0016577182579652515
322.140045 1.0
363.167419 0.027169879627115576
458.617157 0.0016390331631237975
488.323395 0.001724867817551727
END IONS

BEGIN IONS
CHARGE=1+
PRECURSORTYPE=M+Na
FORMULA=C19H23NO4
ONTOLOGY=
INCHIKEY=YHLCCQHFWTVUQJ-UHFFFAOYSA-N
INCHI=InChI=1S/C19H23NO4/c1-2-14-3-4-17-16(11-14)15(12-18(21)24-17)13-20-7-5-19(6-8-20)22-9-10-23-19/h3-4,11-12H,2,5-10,13H2,1H3
SMILES=CCc1ccc2oc(=O)cc(CN3CCC4(CC3)OCCO4)c2c1
IONMODE=positive
INSTRUMENTTYPE=LC-ESI-Orbitrap
INSTRUMENT=Orbitrap
COMMENT=DB#=CCMSLIB00010115385; origin=GNPS
NUM_PEAKS=11
COMPOUND_NAME="4-[(1,4-dioxa-8-azaspiro[4.5]dec-8-yl)methyl]-6-ethylchromen-2-one "
PRECURSOR_MZ=352.152
COLLISION_ENERGY=205060
PARENT_MASS=351.1447235480092
55.678661 0.007567225221295779
69.713142 0.006303531471351794
81.121178 0.006808411480194663
86.141342 0.007576187588316658
90.953957 0.006151171231996845
117.933273 0.0067187878099858695
269.548218 0.007065332668126536
310.054138 0.007178855983724341
352.151764 1.0
361.761169 0.007355115868468301
370.161591 0.04450412717001311
END IONS

BEGIN IONS
CHARGE=1+
PRECURSORTYPE=M+Na
FORMULA=C20H21N5O4S
ONTOLOGY=
INCHIKEY=NJWNAPZNQCBEIO-UHFFFAOYSA-N
INCHI=InChI=1S/C20H21N5O4S/c1-10-13(23-19(29-10)12-6-7-14(27-4)15(8-12)28-5)9-30-20-24-16-17(25(20)3)21-11(2)22-18(16)26/h6-8H,9H2,1-5H3,(H,21,22,26)
SMILES=COc1ccc(-c2nc(CSc3nc4c(O)nc(C)nc4n3C)c(C)o2)cc1OC
IONMODE=positive
INSTRUMENTTYPE=LC-ESI-Orbitrap
INSTRUMENT=Orbitrap
COMMENT=DB#=CCMSLIB00010119299; origin=GNPS
NUM_PEAKS=16
COMPOUND_NAME="8-{[2-(3,4-dimethoxyphenyl)-5-methyl(1,3-oxazol-4-yl)]methylthio}-2,9-dimethyl hydropurin-6-one "
PRECURSOR_MZ=450.121
COLLISION_ENERGY=205060
PARENT_MASS=449.1137235480092
52.680779 0.0013218888568422404
65.819267 0.0012156959859519576
69.033768 0.002307358698704065
120.044922 0.0017674741430978669
148.039078 0.014578157315818022
149.047058 0.019783307075376125
154.025925 0.005356793179189426
163.074966 0.012693446243257283
164.070496 0.7241011516829233
179.952316 0.001120122402150703
218.023041 0.01972086566729264
219.03096 0.10186062652944282
232.096573 0.39120689047309776
288.045197 0.001440400100755796
314.017487 0.001674024416714418
450.120026 1.0
END IONS

BEGIN IONS
CHARGE=1+
PRECURSORTYPE=M+Na
FORMULA=C19H17Cl2NO6
ONTOLOGY=
INCHIKEY=FFIYJDUOKQDRJD-UHFFFAOYSA-N
INCHI=InChI=1S/C19H17Cl2NO6/c1-8(2)26-19(25)15-14(9-3-4-11(20)12(21)5-9)17-16(28-18(15)22)13(24)6-10(7-23)27-17/h3-6,8,14,23H,7,22H2,1-2H3
SMILES=CC(C)OC(=O)C1=C(N)Oc2c(oc(CO)cc2=O)C1c1ccc(Cl)c(Cl)c1
IONMODE=positive
INSTRUMENTTYPE=LC-ESI-Orbitrap
INSTRUMENT=Orbitrap
COMMENT=DB#=CCMSLIB00010123516; origin=GNPS
NUM_PEAKS=19
COMPOUND_NAME="methylethyl 2-amino-4-(3,4-dichlorophenyl)-6-(hydroxymethyl)-8-oxo-4H-pyrano[3 ,2-b]pyran-3-carboxylate "
PRECURSOR_MZ=448.033
COLLISION_ENERGY=205060
PARENT_MASS=447.02572354800924
50.58559 0.17395486496485388
74.84008 0.1752867184609693
82.394958 0.18749537550869405
83.877312 0.1709951905290418
86.48967 0.15952645209027008
90.332397 0.18386977432482426
92.376083 0.18779134295227526
100.459991 0.16884942656307805
104.280907 0.21546429892711802
137.528351 0.17802441731409546
156.463348 0.18734739178690343
295.878021 0.20673325934147244
323.491821 0.19748427672955976
369.005768 0.17321494635590085
387.972229 0.3846836847946726
444.829651 0.2052534221235664
448.030945 1.0
448.096252 0.27746947835738067
451.618988 0.18749537550869405
END IONS

BEGIN IONS
CHARGE=1+
PRECURSORTYPE=M+Na
FORMULA=C16H21N3O3S
ONTOLOGY=
INCHIKEY=RQNWUUHQIGHHPC-UHFFFAOYSA-N
INCHI=InChI=1S/C16H21N3O3S/c1-16(2,3)9-13-18-19-15(23-13)17-14(20)10-6-11(21-4)8-12(7-10)22-5/h6-8H,9H2,1-5H3,(H,17,19,20)
SMILES=COc1cc(OC)cc(C(O)=Nc2nnc(CC(C)(C)C)s2)c1
IONMODE=positive
INSTRUMENTTYPE=LC-ESI-Orbitrap
INSTRUMENT=Orbitrap
COMMENT=DB#=CCMSLIB00010115382; origin=GNPS
NUM_PEAKS=9
COMPOUND_NAME="(3,5-dimethoxyphenyl)-N-[5-(2,2-dimethylpropyl)(1,3,4-thiadiazol-2-yl)]carboxa mide "
PRECURSOR_MZ=358.12
COLLISION_ENERGY=205060
PARENT_MASS=357.1127235480092
74.16687 0.0021552618521358652
102.853302 0.0021300013532410123
139.919373 0.002046100410483107
139.935989 0.002548603906355722
208.723633 0.011940998691867022
303.223206 0.0033361901754702513
358.1185 1.0
371.842926 0.0022662276151382563
376.128479 0.00821958590825026
END IONS

BEGIN IONS
CHARGE=1+
PRECURSORTYPE=M+Na
FORMULA=C23H18N2O2S
ONTOLOGY=
INCHIKEY=KDDXEPFKCPQIAW-UHFFFAOYSA-N
INCHI=InChI=1S/C23H18N2O2S/c1-16-13-22(27-20-12-11-17-7-5-6-10-19(17)14-20)25-23(24-16)28-15-21(26)18-8-3-2-4-9-18/h2-14H,15H2,1H3
SMILES=Cc1cc(Oc2ccc3ccccc3c2)nc(SCC(=O)c2ccccc2)n1
IONMODE=positive
INSTRUMENTTYPE=LC-ESI-Orbitrap
INSTRUMENT=Orbitrap
COMMENT=DB#=CCMSLIB00010115004; origin=GNPS
NUM_PEAKS=6
COMPOUND_NAME=2-(4-methyl-6-(2-naphthyloxy)pyrimidin-2-ylthio)-1-phenylethan-1-one
PRECURSOR_MZ=409.098
COLLISION_ENERGY=205060
PARENT_MASS=408.09072354800924
57.66917 0.002265183557516295
96.442177 0.0026918020525883157
107.165642 0.0024740302684929747
343.142365 0.0025159781121506836
409.0979 1.0
426.643005 0.0029765118850736184
END IONS

BEGIN IONS
CHARGE=1+
PRECURSORTYPE=M+Na
FORMULA=C33H40N2O9
ONTOLOGY=
INCHIKEY=QEVHRUUCFGRFIF-UHFFFAOYSA-N
INCHI=InChI=1S/C33H40N2O9/c1-38-19-7-8-20-21-9-10-35-16-18-13-27(44-32(36)17-11-25(39-2)30(41-4)26(12-17)40-3)31(42-5)28(33(37)43-6)22(18)15-24(35)29(21)34-23(20)14-19/h7-8,11-12,14,18,22,24,27-28,31,34H,9-10,13,15-16H2,1-6H3
SMILES=COC(=O)C1C2CC3c4[nH]c5cc(OC)ccc5c4CCN3CC2CC(OC(=O)c2cc(OC)c(OC)c(OC)c2)C1OC
IONMODE=positive
INSTRUMENTTYPE=LC-ESI-Orbitrap
INSTRUMENT=Orbitrap
COMMENT=DB#=CCMSLIB00010116393; origin=GNPS
NUM_PEAKS=38
COMPOUND_NAME=
PRECURSOR_MZ=631.263
COLLISION_ENERGY=205060
PARENT_MASS=630.2557235480093
56.14632 0.002814127346122419
72.744133 0.0026830249887190996
72.943916 0.0031911736608249896
79.003632 0.0028405510770719254
85.70298 0.0032379233386587315
92.349907 0.003985918183998602
112.583351 0.0030793809529616935
133.801239 0.0030560061140448226
153.173874 0.0034696391331390172
159.06813 0.004524555776430845
174.091461 0.02592981044021936
182.265472 0.003858881015972129
186.090408 0.0033456508571451803
227.116989 0.02828965287347911
249.101044 0.006841713721233704
251.117889 0.03552264107223435
253.133301 0.004262351061624206
264.125397 0.014072669325300519
265.132904 0.018311645548007852
277.132355 0.016200795964079986
277.467651 0.0029015289177246324
303.148163 0.0171683110357696
305.127258 0.016434544353248697
305.166138 0.014680415137139163
333.159271 0.046573858393193245
335.109833 0.04256050018090093
350.161835 0.01429625474102711
355.141998 0.013350081913565943
365.185242 0.09803509071470094
387.16684 0.08994434755743096
397.212769 0.01667540682382689
419.192841 0.08699200377249575
472.946686 0.003821278014236293
567.207825 0.057374050270131836
599.120972 0.005147546048432666
599.235474 0.5238392868031757
631.261536 1.0
649.279236 0.0036078555719518193
END IONS

BEGIN IONS
CHARGE=1+
PRECURSORTYPE=M+Na
FORMULA=C33H40N2O9
ONTOLOGY=
INCHIKEY=QEVHRUUCFGRFIF-UHFFFAOYSA-N
INCHI=InChI=1S/C33H40N2O9/c1-38-19-7-8-20-21-9-10-35-16-18-13-27(44-32(36)17-11-25(39-2)30(41-4)26(12-17)40-3)31(42-5)28(33(37)43-6)22(18)15-24(35)29(21)34-23(20)14-19/h7-8,11-12,14,18,22,24,27-28,31,34H,9-10,13,15-16H2,1-6H3/t18-,22+,24+,27-,28+,31+/m1/s1
SMILES=COC(=O)C1C2CC3c4[nH]c5cc(OC)ccc5c4CCN3CC2CC(OC(=O)c2cc(OC)c(OC)c(OC)c2)C1OC
IONMODE=positive
INSTRUMENTTYPE=LC-ESI-Orbitrap
INSTRUMENT=Orbitrap
COMMENT=DB#=CCMSLIB00010120242; origin=GNPS
NUM_PEAKS=17
COMPOUND_NAME=Isoreserpine
PRECURSOR_MZ=631.263
COLLISION_ENERGY=205060
PARENT_MASS=630.2557235480093
55.588772 0.0023561510544494522
59.67263 0.001856318950366602
86.193817 0.0025804796285118815
111.043587 0.0027213860140948448
126.389618 0.002123410158859682
132.080048 0.00268353056722181
159.066803 0.0028805190963203803
160.075195 0.003307444413832941
174.090927 0.04464839650636287
192.100693 0.002793591773871189
235.057037 0.01782641034322973
253.131424 0.002648479227524555
397.211243 0.012675265461321196
407.107574 0.00226221346406081
419.192993 0.44602759662077046
616.238892 0.0028209318188350476
631.261414 1.0
END IONS

BEGIN IONS
CHARGE=1+
PRECURSORTYPE=M+Na
FORMULA=C33H40N2O9
ONTOLOGY=
INCHIKEY=QEVHRUUCFGRFIF-UHFFFAOYSA-N
INCHI=InChI=1S/C33H40N2O9/c1-38-19-7-8-20-21-9-10-35-16-18-13-27(44-32(36)17-11-25(39-2)30(41-4)26(12-17)40-3)31(42-5)28(33(37)43-6)22(18)15-24(35)29(21)34-23(20)14-19/h7-8,11-12,14,18,22,24,27-28,31,34H,9-10,13,15-16H2,1-6H3/t18-,22+,24-,27-,28+,31+/m1/s1
SMILES=COC(=O)C1C2CC3c4[nH]c5cc(OC)ccc5c4CCN3CC2CC(OC(=O)c2cc(OC)c(OC)c(OC)c2)C1OC
IONMODE=positive
INSTRUMENTTYPE=LC-ESI-Orbitrap
INSTRUMENT=Orbitrap
COMMENT=DB#=CCMSLIB00010122309; origin=GNPS
NUM_PEAKS=25
COMPOUND_NAME=reserpine
PRECURSOR_MZ=631.263
COLLISION_ENERGY=205060
PARENT_MASS=630.2557235480093
68.447289 0.008669789024849281
88.507339 0.008401364951837933
92.38533 0.01463682531454982
115.486778 0.008481583640324083
116.719688 0.008719154371609989
174.091446 0.020054672121537484
212.092789 0.010900485631598759
227.117645 0.036354492555088644
251.117294 0.02148935251177055
264.123718 0.010508648191685642
265.134277 0.013800699753790334
289.133972 0.013140438240865868
303.149353 0.011483613790209618
305.128479 0.04170446201028034
305.165649 0.011446589780139087
333.159882 0.03798971966653708
335.110107 0.0387024318603948
365.185364 0.09895283758183848
387.165466 0.08862622410633296
401.334839 0.01136945642582548
419.193451 0.08930808295846523
435.840607 0.009765082656102483
567.210388 0.04367907588070864
599.234619 0.49768908470476436
631.261169 1.0
END IONS

BEGIN IONS
CHARGE=1+
PRECURSORTYPE=M+Na
FORMULA=C23H21ClFN3O3
ONTOLOGY=
INCHIKEY=SHJQWXKEJJJSGE-UHFFFAOYSA-N
INCHI=InChI=1S/C23H21ClFN3O3/c24-18-12-15(8-9-19(18)25)26-21(29)14-28-20-7-3-2-6-16(20)17(13-22(28)30)23(31)27-10-4-1-5-11-27/h2-3,6-9,12-13H,1,4-5,10-11,14H2,(H,26,29)
SMILES=O=C(c1cc(=O)n(CC(O)=Nc2ccc(F)c(Cl)c2)c2ccccc12)N1CCCCC1
IONMODE=positive
INSTRUMENTTYPE=LC-ESI-Orbitrap
INSTRUMENT=Orbitrap
COMMENT=DB#=CCMSLIB00010124275; origin=GNPS
NUM_PEAKS=19
COMPOUND_NAME=N-(3-chloro-4-fluorophenyl)-2-[2-oxo-4-(piperidylcarbonyl)hydroquinolyl]acetam ide
PRECURSOR_MZ=464.115
COLLISION_ENERGY=205060
PARENT_MASS=463.10772354800923
53.70351 0.001593934724627488
53.82859 0.001290129933771596
55.5583 0.0012948118569183478
64.059502 0.0013239438231648032
69.033752 0.003437051803398764
71.156212 0.0013041757032118512
73.952667 0.0016423145971439228
92.377533 0.0015845708783339845
97.14328 0.0014217439955636177
111.22448 0.0015002962616924528
138.010468 0.034950036076818916
206.036804 0.0463494785117935
257.128387 0.0020376769962029604
259.144684 0.005542356578388139
277.263092 0.001561681476283198
300.165039 0.001752079684251103
334.389343 0.0014227844229295625
381.043091 0.006221235434667144
464.11438 1.0
END IONS

BEGIN IONS
CHARGE=1+
PRECURSORTYPE=M+Na
FORMULA=C15H21NO4
ONTOLOGY=
INCHIKEY=WKMYCGJILIGPTM-UHFFFAOYSA-N
INCHI=InChI=1S/C15H21NO4/c1-18-12-10-14(20-3)13(19-2)9-11(12)15(17)16-7-5-4-6-8-16/h9-10H,4-8H2,1-3H3
SMILES=COc1cc(OC)c(C(=O)N2CCCCC2)cc1OC
IONMODE=positive
INSTRUMENTTYPE=LC-ESI-Orbitrap
INSTRUMENT=Orbitrap
COMMENT=DB#=CCMSLIB00010115631; origin=GNPS
NUM_PEAKS=13
COMPOUND_NAME="piperidyl 2,4,5-trimethoxyphenyl ketone "
PRECURSOR_MZ=302.136
COLLISION_ENERGY=205060
PARENT_MASS=301.12872354800925
84.959953 0.0007611438164904406
92.413841 0.0006545705249852968
104.32579 0.000753468785209206
119.512604 0.0006245282596844641
124.671997 0.0005521636790328233
158.028702 0.0007451358941038656
159.64003 0.0007045678716173396
272.088898 0.00517319037016018
287.111603 0.005600799255828967
300.771423 0.000613344642674665
302.135284 1.0
303.508484 0.0008175004747555064
320.145996 0.0024176348535889106
END IONS

BEGIN IONS
CHARGE=1+
PRECURSORTYPE=M+Na
FORMULA=C15H19N3O3S
ONTOLOGY=
INCHIKEY=LFHPZXGAKBLCRH-UHFFFAOYSA-N
INCHI=InChI=1S/C15H19N3O3S/c1-9(2)5-13-17-18-15(22-13)16-14(19)10-6-11(20-3)8-12(7-10)21-4/h6-9H,5H2,1-4H3,(H,16,18,19)
SMILES=COc1cc(OC)cc(C(O)=Nc2nnc(CC(C)C)s2)c1
IONMODE=positive
INSTRUMENTTYPE=LC-ESI-Orbitrap
INSTRUMENT=Orbitrap
COMMENT=DB#=CCMSLIB00010115693; origin=GNPS
NUM_PEAKS=10
COMPOUND_NAME="(3,5-dimethoxyphenyl)-N-[5-(2-methylpropyl)(1,3,4-thiadiazol-2-yl)]carboxamide "
PRECURSOR_MZ=344.104
COLLISION_ENERGY=205060
PARENT_MASS=343.0967235480092
50.46331 0.002545048991902961
50.859829 0.002299015984021781
53.707878 0.003134599784372958
59.144058 0.0023988218268415048
104.290359 0.003276184817210241
117.401108 0.0023477583723755997
218.258484 0.0026901156239083736
295.751678 0.0030812152637949663
344.102997 1.0
362.112671 0.006350436882668948
END IONS

BEGIN IONS
CHARGE=1+
PRECURSORTYPE=M+Na
FORMULA=C21H20O10
ONTOLOGY=
INCHIKEY=ZXXFEBMBNPRRSI-UHFFFAOYSA-N
INCHI=InChI=1S/C21H20O10/c1-7-2-9-15(18(27)14-10(16(9)25)4-8(23)5-11(14)24)12(3-7)30-21-20(29)19(28)17(26)13(6-22)31-21/h2-5,13,17,19-24,26,28-29H,6H2,1H3
SMILES=Cc1cc(OC2OC(CO)C(O)C(O)C2O)c2c(c1)C(=O)c1cc(O)cc(O)c1C2=O
IONMODE=positive
INSTRUMENTTYPE=LC-ESI-Orbitrap
INSTRUMENT=Orbitrap
COMMENT=DB#=CCMSLIB00010121768; origin=GNPS
NUM_PEAKS=26
COMPOUND_NAME=Untitled
PRECURSOR_MZ=455.095
COLLISION_ENERGY=205060
PARENT_MASS=454.08772354800925
53.039089 0.0037167418947947374
55.55378 0.0016016084835440516
57.033821 0.007974368651969004
61.02877 0.009580887893018445
64.663597 0.0020393674383103627
69.033783 0.0294989203348856
73.028587 0.00396017515970485
81.033562 0.007451723746038071
85.028557 0.03241801490344749
87.044197 0.002482037150582065
87.650009 0.0018134725930623625
92.366463 0.002051995100467083
97.028503 0.015447840038388092
97.034554 0.0019446599721349587
99.158333 0.002247022327109767
109.028099 0.0026588244207761524
109.389793 0.0019650045389430085
120.581619 0.0018688939991946358
127.038429 0.0029190945685618917
170.196167 0.0018162787402083002
185.041824 0.2175163914070162
250.512802 0.0017790972905246233
293.041443 0.18497981678665285
329.050476 0.003066417293723631
347.0578 0.0023627758968797047
455.094177 1.0
END IONS

BEGIN IONS
CHARGE=1+
PRECURSORTYPE=M+Na
FORMULA=C15H8N2O2
ONTOLOGY=
INCHIKEY=VQQVWGVXDIPORV-UHFFFAOYSA-N
INCHI=InChI=1S/C15H8N2O2/c18-13-10-6-2-4-8-12(10)17-14(13)16-11-7-3-1-5-9(11)15(17)19/h1-8H
SMILES=O=C1c2ccccc2-n2c1nc1ccccc1c2=O
IONMODE=positive
INSTRUMENTTYPE=LC-ESI-Orbitrap
INSTRUMENT=Orbitrap
COMMENT=DB#=CCMSLIB00010119108; origin=GNPS
NUM_PEAKS=21
COMPOUND_NAME="Indolo[2,1-b]quinazoline-6,12-dione "
PRECURSOR_MZ=271.048
COLLISION_ENERGY=205060
PARENT_MASS=270.0407235480092
72.937393 0.05036923076923077
75.419769 0.030953846153846155
77.68071 0.03544615384615385
84.96003 0.05529230769230769
87.10083 0.03163076923076923
92.761017 0.031676923076923075
113.963493 0.06143076923076923
136.223953 0.036307692307692305
151.524643 0.03673846153846154
155.873672 0.03292307692307692
197.890015 0.046153846153846156
208.391785 0.04813846153846154
211.970398 0.15383076923076924
216.601929 0.032738461538461536
231.758652 0.04118461538461538
236.38649 0.039784615384615384
245.391357 0.07352307692307693
247.893936 0.07592307692307693
256.898621 0.04338461538461538
271.047119 1.0
271.151825 0.05656923076923077
END IONS

BEGIN IONS
CHARGE=1+
PRECURSORTYPE=M+Na
FORMULA=C15H8N2O2
ONTOLOGY=
INCHIKEY=VQQVWGVXDIPORV-UHFFFAOYSA-N
INCHI=InChI=1S/C15H8N2O2/c18-13-10-6-2-4-8-12(10)17-14(13)16-11-7-3-1-5-9(11)15(17)19/h1-8H
SMILES=O=C1c2ccccc2-n2c1nc1ccccc1c2=O
IONMODE=positive
INSTRUMENTTYPE=LC-ESI-Orbitrap
INSTRUMENT=Orbitrap
COMMENT=DB#=CCMSLIB00010119109; origin=GNPS
NUM_PEAKS=19
COMPOUND_NAME="Indolo[2,1-b]quinazoline-6,12-dione "
PRECURSOR_MZ=271.048
COLLISION_ENERGY=205060
PARENT_MASS=270.0407235480092
56.965248 0.024565579045791795
61.635139 0.023606270719238383
84.959877 0.3763524425932897
91.054619 0.03544583550897985
112.695168 0.024541292759043605
121.028297 0.1086447037680174
131.023941 0.026702772279632307
136.20607 0.025974183677186676
183.975739 0.024577722189165888
211.971466 0.037947323044043184
222.419708 0.027467790312200216
240.230865 0.030102852424378573
242.582382 0.0275042197423225
256.062958 0.1355296231982611
260.210022 0.029689985549659386
271.046997 1.0
271.086914 0.17591771806049714
271.274323 0.04741897487583636
288.925995 0.034741533193282416
END IONS

BEGIN IONS
CHARGE=1+
PRECURSORTYPE=M+Na
FORMULA=C13H15N3O2
ONTOLOGY=
INCHIKEY=HNGIZKAMDMBRKJ-UHFFFAOYSA-N
INCHI=InChI=1S/C13H15N3O2/c1-8(17)16-12(13(14)18)6-9-7-15-11-5-3-2-4-10(9)11/h2-5,7,12,15H,6H2,1H3,(H2,14,18)(H,16,17)/t12-/m0/s1
SMILES=CC(O)=NC(Cc1c[nH]c2ccccc12)C(=N)O
IONMODE=positive
INSTRUMENTTYPE=LC-ESI-Orbitrap
INSTRUMENT=Orbitrap
COMMENT=DB#=CCMSLIB00010123664; origin=GNPS
NUM_PEAKS=12
COMPOUND_NAME=2382-79-8
PRECURSOR_MZ=268.106
COLLISION_ENERGY=205060
PARENT_MASS=267.0987235480092
58.30267 0.001638260084857796
82.389069 0.002058543023830324
90.682693 0.0016220953564357757
101.682091 0.0017549272552080295
119.813377 0.001430227058209187
130.06517 0.0034901757105979475
136.061539 0.003600517552435216
152.029175 0.0018139636546623645
240.018951 0.0015848461996372074
251.078308 0.002400813577809623
266.965729 0.0019053295109607402
268.105103 1.0
END IONS

BEGIN IONS
CHARGE=1+
PRECURSORTYPE=M+Na
FORMULA=C20H21NO4
ONTOLOGY=
INCHIKEY=XQYZDYMELSJDRZ-UHFFFAOYSA-N
INCHI=InChI=1S/C20H21NO4/c1-22-17-6-5-13(10-18(17)23-2)9-16-15-12-20(25-4)19(24-3)11-14(15)7-8-21-16/h5-8,10-12H,9H2,1-4H3
SMILES=COc1ccc(Cc2nccc3cc(OC)c(OC)cc23)cc1OC
IONMODE=positive
INSTRUMENTTYPE=LC-ESI-Orbitrap
INSTRUMENT=Orbitrap
COMMENT=DB#=CCMSLIB00010115063; origin=GNPS
NUM_PEAKS=13
COMPOUND_NAME=papaverine
PRECURSOR_MZ=362.136
COLLISION_ENERGY=205060
PARENT_MASS=361.12872354800925
53.325581 0.005764487162350997
56.363659 0.005608952938746249
118.64016 0.007198318286207274
124.023117 0.006658808948078302
156.431381 0.0055238951602124015
179.664856 0.0063380196118935075
209.52742 0.00654215828037474
209.54628 0.007429189399370572
268.893158 0.006019660497952538
310.915253 0.008150965405786359
320.899811 0.012719783224175852
338.90979 0.03278612829143225
362.135529 1.0
END IONS

BEGIN IONS
CHARGE=1+
PRECURSORTYPE=M+Na
FORMULA=C20H21NO4
ONTOLOGY=
INCHIKEY=XQYZDYMELSJDRZ-UHFFFAOYSA-N
INCHI=InChI=1S/C20H21NO4/c1-22-17-6-5-13(10-18(17)23-2)9-16-15-12-20(25-4)19(24-3)11-14(15)7-8-21-16/h5-8,10-12H,9H2,1-4H3
SMILES=COc1ccc(Cc2nccc3cc(OC)c(OC)cc23)cc1OC
IONMODE=positive
INSTRUMENTTYPE=LC-ESI-Orbitrap
INSTRUMENT=Orbitrap
COMMENT=DB#=CCMSLIB00010115064; origin=GNPS
NUM_PEAKS=19
COMPOUND_NAME=papaverine
PRECURSOR_MZ=362.136
COLLISION_ENERGY=205060
PARENT_MASS=361.12872354800925
50.995529 0.006095363367313384
53.64381 0.005742847747451496
59.41964 0.005195659322591253
64.835342 0.006387372574810917
68.34111 0.0067477803354159815
82.38736 0.007310753041762578
95.20504 0.005811246300559026
104.271767 0.008220979940808944
148.164734 0.005758632028937849
197.309891 0.005805984873396909
209.47554 0.011046366326866163
258.651947 0.00718974021703387
258.708771 0.005945412693193029
294.919952 0.008173627096349886
310.915741 0.006968760276224926
320.899445 0.009112791844787898
338.909424 0.03105294311081881
362.135529 1.0
374.949554 0.005603419927655376
END IONS

BEGIN IONS
CHARGE=1+
PRECURSORTYPE=M+Na
FORMULA=C20H21NO4
ONTOLOGY=
INCHIKEY=XQYZDYMELSJDRZ-UHFFFAOYSA-N
INCHI=InChI=1S/C20H21NO4/c1-22-17-6-5-13(10-18(17)23-2)9-16-15-12-20(25-4)19(24-3)11-14(15)7-8-21-16/h5-8,10-12H,9H2,1-4H3
SMILES=COc1ccc(Cc2nccc3cc(OC)c(OC)cc23)cc1OC
IONMODE=positive
INSTRUMENTTYPE=LC-ESI-Orbitrap
INSTRUMENT=Orbitrap
COMMENT=DB#=CCMSLIB00010115065; origin=GNPS
NUM_PEAKS=13
COMPOUND_NAME=papaverine
PRECURSOR_MZ=362.136
COLLISION_ENERGY=205060
PARENT_MASS=361.12872354800925
54.167229 0.013599359255683315
72.824677 0.011948126042306679
75.583427 0.013577415957166682
92.38134 0.012946546124813482
118.406593 0.013571930132537524
136.209793 0.016276441674712542
167.016495 0.015118932677960151
197.80481 0.012803914684455367
249.303833 0.012282761344685334
272.358215 0.013829763890107961
310.915466 0.01596923549547968
338.910522 0.02680922496269639
362.135925 1.0
END IONS

BEGIN IONS
CHARGE=1+
PRECURSORTYPE=M+Na
FORMULA=C27H27N3O2
ONTOLOGY=
INCHIKEY=SISSIOUECFLRBO-UHFFFAOYSA-N
INCHI=InChI=1S/C27H27N3O2/c1-18-7-11-20(12-8-18)28-25(31)17-30-16-15-23-22-5-3-4-6-24(22)29-26(23)27(30)19-9-13-21(32-2)14-10-19/h3-14,27,29H,15-17H2,1-2H3,(H,28,31)
SMILES=COc1ccc(C2c3[nH]c4ccccc4c3CCN2CC(=O)Nc2ccc(C)cc2)cc1
IONMODE=positive
INSTRUMENTTYPE=LC-ESI-Orbitrap
INSTRUMENT=Orbitrap
COMMENT=DB#=CCMSLIB00010116807; origin=GNPS
NUM_PEAKS=13
COMPOUND_NAME="2-[1-(4-methoxyphenyl)(1,2,3,4-tetrahydrobeta-carbolin-2-yl)]-N-(4-methylpheny l)acetamide "
PRECURSOR_MZ=448.2
COLLISION_ENERGY=205060
PARENT_MASS=447.1927235480092
75.952904 0.0022084385779081455
79.221848 0.002372246666123469
92.382957 0.0027159890274043295
104.289383 0.002996075395855401
145.06459 0.003973831445720959
160.800842 0.0024231714603873
199.084061 0.3301080963632907
220.653229 0.002491919932643472
231.92186 0.0025122898503490048
240.112259 0.004409238436676716
262.123749 0.003906780466606915
346.862213 0.002913746978462207
448.198944 1.0
END IONS

BEGIN IONS
CHARGE=1+
PRECURSORTYPE=M+Na
FORMULA=C19H23N5O2S
ONTOLOGY=
INCHIKEY=LBBHWQWQLGTRIC-UHFFFAOYSA-N
INCHI=InChI=1S/C19H23N5O2S/c1-5-14(17(25)22-13-8-6-12(7-9-13)11(2)3)27-19-23-15-16(24(19)4)20-10-21-18(15)26/h6-11,14H,5H2,1-4H3,(H,22,25)(H,20,21,26)
SMILES=CCC(Sc1nc2c(O)ncnc2n1C)C(=O)Nc1ccc(C(C)C)cc1
IONMODE=positive
INSTRUMENTTYPE=LC-ESI-Orbitrap
INSTRUMENT=Orbitrap
COMMENT=DB#=CCMSLIB00010120004; origin=GNPS
NUM_PEAKS=15
COMPOUND_NAME=N-[4-(methylethyl)phenyl]-2-(9-methyl-6-oxohydropurin-8-ylthio)butanamide
PRECURSOR_MZ=408.146
COLLISION_ENERGY=205060
PARENT_MASS=407.13872354800924
82.386948 0.000661451322096225
96.075829 0.0005744330591382867
142.011963 0.0006340705755620461
158.9767 0.0005086067438403635
162.091507 0.0006501989605068363
173.043167 0.0008444897372836124
204.007446 0.053303562085092605
205.015244 0.06191930781472762
212.104538 0.01824870494695074
226.12001 0.0038736254771470162
258.092285 0.0006792675612794235
273.041565 0.0037333460359993053
406.015289 0.0008270485768200601
408.145844 1.0
410.294739 0.0007034601386966089
END IONS

BEGIN IONS
CHARGE=1+
PRECURSORTYPE=M+Na
FORMULA=C19H17NO5
ONTOLOGY=
INCHIKEY=VLARYZURBZCEOD-UHFFFAOYSA-N
INCHI=InChI=1S/C19H17NO5/c1-23-16-8-11(9-17(24-2)18(16)25-3)15(21)10-13-12-6-4-5-7-14(12)20-19(13)22/h4-10H,1-3H3,(H,20,22)/b13-10-
SMILES=COc1cc(C(=O)C=C2C(O)=Nc3ccccc32)cc(OC)c1OC
IONMODE=positive
INSTRUMENTTYPE=LC-ESI-Orbitrap
INSTRUMENT=Orbitrap
COMMENT=DB#=CCMSLIB00010120711; origin=GNPS
NUM_PEAKS=10
COMPOUND_NAME="3-[2-oxo-2-(3,4,5-trimethoxyphenyl)ethylidene]-1H-benzo[d]azolidin-2-one "
PRECURSOR_MZ=362.1
COLLISION_ENERGY=205060
PARENT_MASS=361.09272354800925
66.739563 0.0034005891514439974
71.556427 0.0027628220629823193
72.633041 0.002965804908425918
76.034264 0.0028442657972652446
82.393372 0.003362999735621109
92.37117 0.004087222480475431
118.644279 0.003279050040283324
244.562698 0.002832988972518378
251.728073 0.0030848380585317323
362.099487 1.0
END IONS

BEGIN IONS
CHARGE=1+
PRECURSORTYPE=M+Na
FORMULA=C15H14N4O3S
ONTOLOGY=
INCHIKEY=RDISCFKPWSUFQH-UHFFFAOYSA-N
INCHI=InChI=1S/C15H14N4O3S/c1-19-13-12(14(21)17-8-16-13)18-15(19)23-7-10-5-9(6-20)3-4-11(10)22-2/h3-6,8H,7H2,1-2H3,(H,16,17,21)
SMILES=COc1ccc(C=O)cc1CSc1nc2c(O)ncnc2n1C
IONMODE=positive
INSTRUMENTTYPE=LC-ESI-Orbitrap
INSTRUMENT=Orbitrap
COMMENT=DB#=CCMSLIB00010123532; origin=GNPS
NUM_PEAKS=12
COMPOUND_NAME=4-methoxy-3-[(9-methyl-6-oxohydropurin-8-ylthio)methyl]benzaldehyde
PRECURSOR_MZ=353.068
COLLISION_ENERGY=205060
PARENT_MASS=352.0607235480092
56.753342 0.0011459294058132397
66.743698 0.0014631292458252491
75.12291 0.0012919338702596104
80.467857 0.0013274067859173552
82.399193 0.001357738699305862
91.054352 0.014614327150764004
93.069618 0.0024466029799305555
119.049133 0.0029504212023159187
149.059418 0.00544329320266962
204.007523 0.12153894874729197
212.632462 0.0012230444398518157
353.067535 1.0
END IONS

BEGIN IONS
CHARGE=1+
PRECURSORTYPE=M+Na
FORMULA=C18H21NO4
ONTOLOGY=
INCHIKEY=JWFHAILNLSSNDW-UHFFFAOYSA-N
INCHI=InChI=1S/C18H21NO4/c1-4-22-16-11-10-13(12-17(16)23-5-2)18(20)19-14-8-6-7-9-15(14)21-3/h6-12H,4-5H2,1-3H3,(H,19,20)
SMILES=CCOc1ccc(C(O)=Nc2ccccc2OC)cc1OCC
IONMODE=positive
INSTRUMENTTYPE=LC-ESI-Orbitrap
INSTRUMENT=Orbitrap
COMMENT=DB#=CCMSLIB00010116014; origin=GNPS
NUM_PEAKS=6
COMPOUND_NAME="(3,4-diethoxyphenyl)-N-(2-methoxyphenyl)carboxamide "
PRECURSOR_MZ=338.136
COLLISION_ENERGY=205060
PARENT_MASS=337.12872354800925
60.209961 0.002136355454868431
62.45676 0.001930918538608476
66.737503 0.0027196832125056425
118.738113 0.002421893921046258
138.475403 0.0022550942229819827
338.135406 1.0
END IONS

BEGIN IONS
CHARGE=1+
PRECURSORTYPE=M+Na
FORMULA=C17H14O4
ONTOLOGY=
INCHIKEY=KJRQQECDVUXBCO-UHFFFAOYSA-N
INCHI=InChI=1S/C17H14O4/c1-19-14-9-8-12-13(18)10-15(11-6-4-3-5-7-11)21-16(12)17(14)20-2/h3-10H,1-2H3
SMILES=COc1ccc2c(=O)cc(-c3ccccc3)oc2c1OC
IONMODE=positive
INSTRUMENTTYPE=LC-ESI-Orbitrap
INSTRUMENT=Orbitrap
COMMENT=DB#=CCMSLIB00010114769; origin=GNPS
NUM_PEAKS=9
COMPOUND_NAME="7,8-Dimethoxyflavone "
PRECURSOR_MZ=305.078
COLLISION_ENERGY=205060
PARENT_MASS=304.0707235480092
66.74913 0.02522188946365369
75.32914 0.025069425537707597
84.959663 0.04744895181050912
90.976517 0.0337054179145113
104.298042 0.02333787095017697
118.67112 0.030078954533079228
186.719772 0.02768309283964062
305.078064 1.0
305.174591 0.7579961884018513
END IONS

BEGIN IONS
CHARGE=1+
PRECURSORTYPE=M+Na
FORMULA=C19H17Cl2NO6
ONTOLOGY=
INCHIKEY=NYIHORJUBZLXER-UHFFFAOYSA-N
INCHI=InChI=1S/C19H17Cl2NO6/c1-8(2)26-19(25)14-13(10-4-3-5-11(20)15(10)21)17-16(28-18(14)22)12(24)6-9(7-23)27-17/h3-6,8,13,23H,7,22H2,1-2H3
SMILES=CC(C)OC(=O)C1=C(N)Oc2c(oc(CO)cc2=O)C1c1cccc(Cl)c1Cl
IONMODE=positive
INSTRUMENTTYPE=LC-ESI-Orbitrap
INSTRUMENT=Orbitrap
COMMENT=DB#=CCMSLIB00010123892; origin=GNPS
NUM_PEAKS=12
COMPOUND_NAME="methylethyl 2-amino-4-(2,3-dichlorophenyl)-6-(hydroxymethyl)-8-oxo-4H-pyrano[3 ,2-b]pyran-3-carboxylate "
PRECURSOR_MZ=448.033
COLLISION_ENERGY=205060
PARENT_MASS=447.02572354800924
63.06329 0.054408347582094785
73.952316 0.07128764961199527
129.921417 0.057652680959270466
136.207947 0.05272041737910474
154.899948 0.06026130036389145
191.236252 0.05760883861633566
233.062317 0.05918716296198869
305.916626 0.05116401420491911
361.014984 0.05206278223508264
387.973511 0.6909991669954842
448.031616 1.0
471.897369 0.05605243544215003
END IONS

BEGIN IONS
CHARGE=1+
PRECURSORTYPE=M+Na
FORMULA=C8H10BrN3OS
ONTOLOGY=
INCHIKEY=DWEPCHYENCFQCO-UHFFFAOYSA-N
INCHI=InChI=1S/C8H10BrN3OS/c1-8(2)3-12-5(10)4(9)6(13)11-7(12)14-8/h3,10H2,1-2H3
SMILES=CC1(C)Cn2c(nc(=O)c(Br)c2N)S1
IONMODE=positive
INSTRUMENTTYPE=LC-ESI-Orbitrap
INSTRUMENT=Orbitrap
COMMENT=DB#=CCMSLIB00010116804; origin=GNPS
NUM_PEAKS=16
COMPOUND_NAME="5-amino-6-bromo-2,2-dimethyl-4-hydro-3H-1,3-thiazolidino[3,2-a]pyrimidin-7-one "
PRECURSOR_MZ=297.962
COLLISION_ENERGY=205060
PARENT_MASS=296.9547235480092
50.492489 0.001634238639027494
53.076599 0.0016863318561185345
72.883011 0.0017756345139888893
82.401108 0.002281682908587567
84.960083 0.003078709130080484
91.057747 0.0018307044863422747
100.275726 0.0016037268975884562
104.288406 0.001933402542893183
114.130623 0.0017056807653237779
125.195831 0.0016223316179781134
136.061752 0.0021120078586338927
136.213013 0.0018984256685606272
201.684219 0.0016744248350691537
297.961792 1.0
300.062531 0.008952591451503076
315.972382 0.007392027505218624
END IONS

BEGIN IONS
CHARGE=1+
PRECURSORTYPE=M+Na
FORMULA=C21H21NO3
ONTOLOGY=
INCHIKEY=WRKNCGBLJWHTCH-UHFFFAOYSA-N
INCHI=InChI=1S/C21H21NO3/c23-19-10-9-16-20(24)18(15-7-3-1-4-8-15)14-25-21(16)17(19)13-22-11-5-2-6-12-22/h1,3-4,7-10,14,23H,2,5-6,11-13H2
SMILES=O=c1c(-c2ccccc2)coc2c(CN3CCCCC3)c(O)ccc12
IONMODE=positive
INSTRUMENTTYPE=LC-ESI-Orbitrap
INSTRUMENT=Orbitrap
COMMENT=DB#=CCMSLIB00010114800; origin=GNPS
NUM_PEAKS=12
COMPOUND_NAME=7-hydroxy-3-phenyl-8-(piperidylmethyl)chromen-4-one
PRECURSOR_MZ=358.141
COLLISION_ENERGY=205060
PARENT_MASS=357.13372354800924
71.78656 0.0007996989577701195
92.384827 0.0009083247328672274
104.28878 0.0005771160811907695
122.128616 0.000703735082837705
134.050186 0.0006668600753405274
136.222885 0.0008056966999533953
196.842865 0.000655753145371498
273.05191 1.0
274.223969 0.0007288367445677116
291.062561 0.009675246696021543
314.078217 0.007892140158793557
358.140564 0.03665620097678785
END IONS

BEGIN IONS
CHARGE=1+
PRECURSORTYPE=M+Na
FORMULA=C21H21NO3
ONTOLOGY=
INCHIKEY=WRKNCGBLJWHTCH-UHFFFAOYSA-N
INCHI=InChI=1S/C21H21NO3/c23-19-10-9-16-20(24)18(15-7-3-1-4-8-15)14-25-21(16)17(19)13-22-11-5-2-6-12-22/h1,3-4,7-10,14,23H,2,5-6,11-13H2
SMILES=O=c1c(-c2ccccc2)coc2c(CN3CCCCC3)c(O)ccc12
IONMODE=positive
INSTRUMENTTYPE=LC-ESI-Orbitrap
INSTRUMENT=Orbitrap
COMMENT=DB#=CCMSLIB00010114802; origin=GNPS
NUM_PEAKS=12
COMPOUND_NAME=7-hydroxy-3-phenyl-8-(piperidylmethyl)chromen-4-one
PRECURSOR_MZ=358.141
COLLISION_ENERGY=205060
PARENT_MASS=357.13372354800924
66.737228 0.001775205986883705
70.205757 0.0014493578732899031
73.716293 0.0013984819596432872
104.275307 0.0015789703199610436
220.622864 0.0016098592675322031
238.448715 0.0016268179054144086
273.051971 1.0
291.062469 0.006554513541472349
300.094543 0.0017140337573800359
308.868256 0.0016904127974726785
314.079437 0.019177796782219595
358.140808 0.04113014785509571
END IONS

BEGIN IONS
CHARGE=1+
PRECURSORTYPE=M+Na
FORMULA=C19H20O3
ONTOLOGY=
INCHIKEY=GVKKJJOMQCNPGB-UHFFFAOYSA-N
INCHI=InChI=1S/C19H20O3/c1-10-9-22-18-12-6-7-13-11(5-4-8-19(13,2)3)15(12)17(21)16(20)14(10)18/h6-7,10H,4-5,8-9H2,1-3H3/t10-/m0/s1
SMILES=CC1COC2=C1C(=O)C(=O)c1c2ccc2c1CCCC2(C)C
IONMODE=positive
INSTRUMENTTYPE=LC-ESI-Orbitrap
INSTRUMENT=Orbitrap
COMMENT=DB#=CCMSLIB00010118647; origin=GNPS
NUM_PEAKS=10
COMPOUND_NAME=Cryptotanshinone
PRECURSOR_MZ=319.13
COLLISION_ENERGY=205060
PARENT_MASS=318.1227235480092
54.962631 0.00033466700379867814
86.865623 0.00036914334431713746
92.229942 0.0003741408941670219
92.374001 0.0004370154740351622
214.483658 0.0004458287207298908
304.104218 0.0005613126429366792
317.660828 0.0006274626439902167
319.12973 1.0
320.608429 0.0005426731326857589
337.140625 0.005765788070389274
END IONS

BEGIN IONS
CHARGE=1+
PRECURSORTYPE=M+Na
FORMULA=C31H38O11
ONTOLOGY=
INCHIKEY=OVMSOCFBDVBLFW-UHFFFAOYSA-N
INCHI=InChI=1S/C31H38O11/c1-15-19(34)13-31(38)26(41-27(37)18-10-8-7-9-11-18)24-29(6,20(35)12-21-30(24,14-39-21)42-17(3)33)25(36)23(40-16(2)32)22(15)28(31,4)5/h7-11,19-21,23-24,26,34-35,38H,12-14H2,1-6H3/t19-,20-,21+,23+,24-,26-,29+,30-,31+/m0/s1
SMILES=CC(=O)OC1C(=O)C2(C)C(O)CC3OCC3(OC(C)=O)C2C(OC(=O)c2ccccc2)C2(O)CC(O)C(C)=C1C2(C)C
IONMODE=positive
INSTRUMENTTYPE=LC-ESI-Orbitrap
INSTRUMENT=Orbitrap
COMMENT=DB#=CCMSLIB00010124033; origin=GNPS
NUM_PEAKS=84
COMPOUND_NAME=Baccatin III
PRECURSOR_MZ=609.231
COLLISION_ENERGY=205060
PARENT_MASS=608.2237235480093
52.465759 0.0014034711056243859
53.03838 0.023489354949370957
53.04147 0.0034575703194098606
54.490891 0.0013852684541048146
55.05402 0.002036363296920251
67.053802 0.014238674100193928
77.038147 0.0019462835086310906
79.054337 0.012665778315041225
81.032852 0.006510014958845672
81.069313 0.006199169679049915
82.397621 0.0017889939301158203
83.009483 0.0015220217078287738
83.048866 0.003255940948731532
85.027969 0.0021894522635463897
91.053307 0.01536070420924648
93.068916 0.007913486064470059
95.049248 0.015035856889820284
95.085571 0.015807836008111847
105.033386 0.15538110051364148
105.069839 0.020012181774478482
107.048286 0.0028526822073748743
107.084686 0.005609683810608412
109.063454 0.006835795747580564
109.100243 0.0024732269333899637
115.053993 0.0019518843244832663
117.068291 0.0020886375782072255
118.659599 0.0014944843632222428
119.084297 0.009010312502187819
121.063606 0.008594451925163766
121.100189 0.0029408950570466432
123.043198 0.002554438763246513
123.079353 0.006246309879139061
128.060379 0.0027028603833291714
129.068542 0.0034846409293620437
131.084457 0.008539377235950704
133.063675 0.0031336564692923605
133.099716 0.0066154969907283164
135.079041 0.006722845961228352
137.095245 0.002024694930561552
142.077133 0.0031565264673554115
143.084503 0.00617256580375208
145.100052 0.002737398747750922
147.07959 0.0030995848395249576
149.094803 0.0018944759619984645
151.111069 0.003397828283653319
152.020203 0.0014580790601831
154.077103 0.001741853730026674
155.084747 0.002615581002966099
157.099884 0.008715336200639892
159.0793 0.00770018832743303
159.115982 0.0026622544684008972
161.094986 0.0022211902200420528
165.089615 0.0016401055753788136
169.10025 0.003253607275459792
170.108139 0.002749067114109622
171.078522 0.0020867706395898337
171.115463 0.0034118303232837585
173.094131 0.002742066094294402
173.131332 0.0029334273025770755
175.110718 0.0018305333143527906
177.09111 0.0022907336835399023
180.092438 0.0020540992137854748
181.099121 0.0018986765738875963
183.11525 0.002052232275168083
185.131226 0.001546758644509217
185.50531 0.0018151310707593073
187.109802 0.0017819929103006006
195.115982 0.0023434746994812246
197.094772 0.0021292434931355
199.109894 0.002192719406126826
211.110519 0.0019486171819028306
223.110565 0.0020036918711158927
337.139038 0.0035397156185751058
339.155823 0.002070901661342002
367.150635 0.05464622680037059
389.16922 0.003138790550490188
427.172089 0.0747802263196339
459.178528 0.020962453530730975
487.189697 0.0026398512049921937
489.188568 0.04379557955608867
521.212585 0.03488748194320306
549.208496 0.6794956465325116
590.233337 0.002354209596531228
609.229431 1.0
END IONS

BEGIN IONS
CHARGE=1+
PRECURSORTYPE=M+Na
FORMULA=C19H21NO5
ONTOLOGY=
INCHIKEY=UOGFWBMGLSZZBQ-UHFFFAOYSA-N
INCHI=InChI=1S/C19H21NO5/c1-12(8-13-4-6-15(22-2)17(9-13)23-3)20-19(21)14-5-7-16-18(10-14)25-11-24-16/h4-7,9-10,12H,8,11H2,1-3H3,(H,20,21)
SMILES=COc1ccc(CC(C)N=C(O)c2ccc3c(c2)OCO3)cc1OC
IONMODE=positive
INSTRUMENTTYPE=LC-ESI-Orbitrap
INSTRUMENT=Orbitrap
COMMENT=DB#=CCMSLIB00010115974; origin=GNPS
NUM_PEAKS=16
COMPOUND_NAME="2H-benzo[3,4-d]1,3-dioxolen-5-yl-N-[2-(3,4-dimethoxyphenyl)-isopropyl]carboxam ide "
PRECURSOR_MZ=366.131
COLLISION_ENERGY=205060
PARENT_MASS=365.1237235480092
51.25769 0.00039484042666860955
54.228271 0.00035568625431825344
60.81551 0.0004387275209514263
62.591721 0.000370315285745859
66.575317 0.0005366846627656872
70.367119 0.00037045870762260027
75.931702 0.0004259629739214567
89.946312 0.000399429926724329
128.294937 0.0004820409277272781
136.202454 0.0006022284604364299
196.610016 0.0004894988653178222
200.399109 0.00042524586453775056
211.336212 0.0005110121468290069
350.101013 0.0006046666323410308
351.106415 0.0017381297242269813
366.131042 1.0
END IONS

BEGIN IONS
CHARGE=1+
PRECURSORTYPE=M+Na
FORMULA=C23H23N5O2S
ONTOLOGY=
INCHIKEY=DKRHILRFORRVNP-UHFFFAOYSA-N
INCHI=InChI=1S/C23H23N5O2S/c1-4-16-7-5-6-15(3)19(16)26-18(29)12-31-23-27-20-21(24-13-25-22(20)30)28(23)17-10-8-14(2)9-11-17/h5-11,13H,4,12H2,1-3H3,(H,26,29)(H,24,25,30)
SMILES=CCc1cccc(C)c1N=C(O)CSc1nc2c(O)ncnc2n1-c1ccc(C)cc1
IONMODE=positive
INSTRUMENTTYPE=LC-ESI-Orbitrap
INSTRUMENT=Orbitrap
COMMENT=DB#=CCMSLIB00010124152; origin=GNPS
NUM_PEAKS=18
COMPOUND_NAME=N-(6-ethyl-2-methylphenyl)-2-[9-(4-methylphenyl)-6-oxohydropurin-8-ylthio]acet amide
PRECURSOR_MZ=456.146
COLLISION_ENERGY=205060
PARENT_MASS=455.13872354800924
72.156754 0.0012048807617821855
73.948013 0.001286186426970646
79.392159 0.0011702826063828408
81.735924 0.001448365280405075
119.747162 0.0014202542791431074
151.318985 0.0015668639626478314
169.827637 0.0012412088249514977
173.782761 0.0011897440687949723
174.476608 0.0010920042797918229
220.615601 0.0012654275337310391
249.074341 0.0026856818128741466
279.030121 0.04366719688339816
280.038635 0.009027956174516556
289.069489 0.0012948359658204822
321.04071 0.002434845186228896
436.128021 0.0061467947836361106
456.145416 1.0
469.322388 0.0012533181793412684
END IONS

BEGIN IONS
CHARGE=1+
PRECURSORTYPE=M+Na
FORMULA=C14H13N3O2
ONTOLOGY=
INCHIKEY=OYGOCOVQYGJSNQ-UHFFFAOYSA-N
INCHI=InChI=1S/C14H13N3O2/c1-10-7-13(18)16(2)14(19)17(10)9-12-6-4-3-5-11(12)8-15/h3-7H,9H2,1-2H3
SMILES=Cc1cc(=O)n(C)c(=O)n1Cc1ccccc1C#N
IONMODE=positive
INSTRUMENTTYPE=LC-ESI-Orbitrap
INSTRUMENT=Orbitrap
COMMENT=DB#=CCMSLIB00010117306; origin=GNPS
NUM_PEAKS=32
COMPOUND_NAME="2-[(3,6-dimethyl-2,4-dioxo-1,3-dihydropyrimidinyl)methyl]benzenecarbonitrile "
PRECURSOR_MZ=278.09
COLLISION_ENERGY=205060
PARENT_MASS=277.0827235480092
55.054749 0.039910467827057025
55.934929 0.013218867546732647
56.965321 0.013361890187216636
69.353889 0.008073628055321157
72.08123 0.010008009267867104
73.955963 0.01094838312904933
82.402519 0.007351363720877015
85.9534 0.006947324761509747
103.054123 0.03299174759364407
104.287193 0.009836382099286316
105.03334 0.0503010626582188
108.058563 0.009382285215749653
116.049004 0.008688625409402309
118.657791 0.011488293596876385
125.552994 0.007326334758792317
129.032898 0.01067306454611765
136.217484 0.009832806533274218
138.078262 0.01294712452981307
164.947266 0.01445243782090705
181.341354 0.008123685979490553
182.037674 0.01042992605729487
203.938766 0.01155980491711838
209.018814 0.07475435861496875
213.923065 0.013100873868333357
223.930923 0.0691228421459117
227.029449 0.14988772722722007
237.014221 0.01054434416968206
250.045197 0.01924727184313277
255.023514 0.0350941804087587
277.977753 0.44813641499449364
278.037872 0.06380239991990733
278.0896 1.0
END IONS

BEGIN IONS
CHARGE=1+
PRECURSORTYPE=M+Na
FORMULA=C21H24N2O4
ONTOLOGY=
INCHIKEY=VNBUDGXHADQNRB-UHFFFAOYSA-N
INCHI=InChI=1S/C21H24N2O4/c1-3-23(4-2)21(25)16-6-5-7-17(12-16)22-11-10-18(24)15-8-9-19-20(13-15)27-14-26-19/h5-9,12-13,22H,3-4,10-11,14H2,1-2H3
SMILES=CCN(CC)C(=O)c1cccc(NCCC(=O)c2ccc3c(c2)OCO3)c1
IONMODE=positive
INSTRUMENTTYPE=LC-ESI-Orbitrap
INSTRUMENT=Orbitrap
COMMENT=DB#=CCMSLIB00010125988; origin=GNPS
NUM_PEAKS=18
COMPOUND_NAME="{3-[(3-(2H-benzo[3,4-d]1,3-dioxolan-5-yl)-3-oxopropyl)amino]phenyl}-N,N-diethy lcarboxamide "
PRECURSOR_MZ=391.163
COLLISION_ENERGY=205060
PARENT_MASS=390.15572354800923
52.74165 0.008408653427229303
63.803249 0.00937507426389626
69.65361 0.010095929150262598
70.177544 0.009644404661000167
75.766983 0.010670236614675338
84.960327 0.011561403369798556
93.835297 0.008527475661245733
136.201828 0.01068211883807698
146.29689 0.008709669753404257
149.023529 0.06069043639445813
154.694275 0.009426563898636713
157.962601 0.011359405571970627
159.603943 0.010325652136027694
185.541626 0.010983135164251935
211.08519 0.014813171840714835
353.683502 0.012044613788132034
368.938477 0.010004832104183336
391.162109 1.0
END IONS

BEGIN IONS
CHARGE=1+
PRECURSORTYPE=M+Na
FORMULA=C21H20BrN3O3
ONTOLOGY=
INCHIKEY=HTVPFVSNIFRBPB-UHFFFAOYSA-N
INCHI=InChI=1S/C21H20BrN3O3/c1-2-11-23-21(28)17-12-20(27)25(18-6-4-3-5-16(17)18)13-19(26)24-15-9-7-14(22)8-10-15/h3-10,12H,2,11,13H2,1H3,(H,23,28)(H,24,26)
SMILES=CCCN=C(O)c1cc(=O)n(CC(=O)Nc2ccc(Br)cc2)c2ccccc12
IONMODE=positive
INSTRUMENTTYPE=LC-ESI-Orbitrap
INSTRUMENT=Orbitrap
COMMENT=DB#=CCMSLIB00010125265; origin=GNPS
NUM_PEAKS=12
COMPOUND_NAME=N-(4-bromophenyl)-2-[2-oxo-4-(N-propylcarbamoyl)hydroquinolyl]acetamide
PRECURSOR_MZ=464.058
COLLISION_ENERGY=205060
PARENT_MASS=463.0507235480092
59.233841 0.005025831277929149
75.425583 0.006287385140843316
82.385681 0.007086897732600409
83.757042 0.005485607640894276
85.064194 0.005682654653593616
92.362534 0.008629300211315935
132.513 0.006097132852719815
170.271408 0.006371186743945334
185.361404 0.006452723438855406
355.872467 0.0056464161225224735
362.143311 0.006729042238272871
464.056854 1.0
END IONS

BEGIN IONS
CHARGE=1+
PRECURSORTYPE=M+Na
FORMULA=C15H16O9
ONTOLOGY=
INCHIKEY=XHCADAYNFIFUHF-UHFFFAOYSA-N
INCHI=InChI=1S/C15H16O9/c16-5-10-12(19)13(20)14(21)15(24-10)23-9-3-6-1-2-11(18)22-8(6)4-7(9)17/h1-4,10,12-17,19-21H,5H2
SMILES=O=c1ccc2cc(OC3OC(CO)C(O)C(O)C3O)c(O)cc2o1
IONMODE=positive
INSTRUMENTTYPE=LC-ESI-Orbitrap
INSTRUMENT=Orbitrap
COMMENT=DB#=CCMSLIB00010121405; origin=GNPS
NUM_PEAKS=18
COMPOUND_NAME=NSC26665
PRECURSOR_MZ=363.069
COLLISION_ENERGY=205060
PARENT_MASS=362.06172354800924
50.366879 0.005471130610002734
58.334061 0.005764270881317604
66.735619 0.006557473968404898
70.600151 0.006180579333857209
72.577606 0.005362742610524968
82.387268 0.006387501878314764
86.422829 0.00550069097349667
92.363922 0.006786566785482905
130.68483 0.00820300086956736
185.041656 0.006005680516518085
201.015488 0.04908744694530594
211.305389 0.008749867594205183
211.325165 0.008311388869045127
221.07196 0.00637518506019229
230.969437 0.007643817326807062
282.818298 0.006197822879228671
283.478729 0.006456476059800615
363.067627 1.0
END IONS

BEGIN IONS
CHARGE=1+
PRECURSORTYPE=M+Na
FORMULA=C29H23ClN2O3
ONTOLOGY=
INCHIKEY=GTIJUYRURIFXCS-UHFFFAOYSA-N
INCHI=InChI=1S/C29H23ClN2O3/c1-16-10-11-26-19(12-16)29(34)20(15-35-26)28-27-24(31-22-8-4-5-9-23(22)32-28)13-17(14-25(27)33)18-6-2-3-7-21(18)30/h2-12,15,17,28,31-32H,13-14H2,1H3
SMILES=Cc1ccc2occ(C3Nc4ccccc4NC4=C3C(=O)CC(c3ccccc3Cl)C4)c(=O)c2c1
IONMODE=positive
INSTRUMENTTYPE=LC-ESI-Orbitrap
INSTRUMENT=Orbitrap
COMMENT=DB#=CCMSLIB00010116976; origin=GNPS
NUM_PEAKS=13
COMPOUND_NAME="3-[3-(2-chlorophenyl)-1-oxo(2,3,4-trihydro-5H,10H,11H-benzo[b]benzo[2,1-f]1,4- diazepin-11-yl)]-6-methylchromen-4-one "
PRECURSOR_MZ=505.129
COLLISION_ENERGY=205060
PARENT_MASS=504.12172354800924
61.137661 0.0009420866480500776
71.635551 0.0010124441273667377
80.657494 0.0010817462444936477
87.370773 0.0011915039122276374
100.842918 0.000969526064983575
107.271103 0.0010124441273667377
136.205978 0.0010792837327175647
185.070114 0.0014479569243368632
210.934372 0.0010451603552489846
245.978745 0.0010493818040079842
337.01889 0.0010156102139359873
373.059418 0.015316823247236886
505.12793 1.0
END IONS

BEGIN IONS
CHARGE=1+
PRECURSORTYPE=M+Na
FORMULA=C12H11N5O
ONTOLOGY=
INCHIKEY=BUDWTFCZGZYQHZ-UHFFFAOYSA-N
INCHI=InChI=1S/C12H11N5O/c18-9-3-1-2-8(4-9)5-13-11-10-12(15-6-14-10)17-7-16-11/h1-4,6-7,18H,5H2,(H2,13,14,15,16,17)
SMILES=C1=CC(=CC(=C1)O)CNC2=NC=NC3=C2NC=N3
IONMODE=positive
INSTRUMENTTYPE=LC-ESI-Orbitrap
INSTRUMENT=Orbitrap
COMMENT=DB#=CCMSLIB00010102071; origin=GNPS
NUM_PEAKS=7
COMPOUND_NAME=meta-topolin
PRECURSOR_MZ=264.086
COLLISION_ENERGY=205060
PARENT_MASS=263.07872354800924
54.738338 0.007615942416498895
65.846596 0.00682710447523598
69.967834 0.005922529933100161
72.318466 0.006526248554187418
73.991249 0.011611131892365449
92.425476 0.0078080163943463066
264.084564 1.0
END IONS

BEGIN IONS
CHARGE=1+
PRECURSORTYPE=M+Na
FORMULA=C25H29N3O3S
ONTOLOGY=
INCHIKEY=NGTSRFJHFKEKPL-UHFFFAOYSA-N
INCHI=InChI=1S/C25H29N3O3S/c1-3-18-7-8-23-22(13-18)19(14-25(30)31-23)16-27-9-11-28(12-10-27)17-24(29)26-20-5-4-6-21(15-20)32-2/h4-8,13-15H,3,9-12,16-17H2,1-2H3,(H,26,29)
SMILES=CCc1ccc2oc(=O)cc(CN3CCN(CC(O)=Nc4cccc(SC)c4)CC3)c2c1
IONMODE=positive
INSTRUMENTTYPE=LC-ESI-Orbitrap
INSTRUMENT=Orbitrap
COMMENT=DB#=CCMSLIB00010119386; origin=GNPS
NUM_PEAKS=9
COMPOUND_NAME=2-{4-[(6-ethyl-2-oxochromen-4-yl)methyl]piperazinyl}-N-(3-methylthiophenyl)ace tamide
PRECURSOR_MZ=474.182
COLLISION_ENERGY=205060
PARENT_MASS=473.17472354800924
74.752228 0.0016018735468117387
89.366722 0.0016265609149587496
110.098183 0.0015760640255671361
136.242096 0.0016607865844352877
217.063232 0.0017006230193997828
221.668091 0.001839208926952322
286.098907 0.006070848257969531
290.541534 0.0015351054375050497
474.181732 1.0
END IONS

BEGIN IONS
CHARGE=1+
PRECURSORTYPE=M+Na
FORMULA=C26H23N3O4
ONTOLOGY=
INCHIKEY=VIPXLWNGZDNITH-UHFFFAOYSA-N
INCHI=InChI=1S/C26H23N3O4/c1-16-10-12-17(13-11-16)24(30)28-22-9-5-3-7-20(22)25(31)29-23(26(32)33)14-18-15-27-21-8-4-2-6-19(18)21/h2-13,15,23,27H,14H2,1H3,(H,28,30)(H,29,31)(H,32,33)
SMILES=Cc1ccc(C(=O)Nc2ccccc2C(O)=NC(Cc2c[nH]c3ccccc23)C(=O)O)cc1
IONMODE=positive
INSTRUMENTTYPE=LC-ESI-Orbitrap
INSTRUMENT=Orbitrap
COMMENT=DB#=CCMSLIB00010122797; origin=GNPS
NUM_PEAKS=34
COMPOUND_NAME=3-indol-3-yl-2-({2-[(4-methylphenyl)carbonylamino]phenyl}carbonylamino)propano ic acid
PRECURSOR_MZ=464.158
COLLISION_ENERGY=205060
PARENT_MASS=463.15072354800924
69.485283 0.0013127171111034536
91.054176 0.0050953935115674994
92.384857 0.0013697382606170099
92.487534 0.0011445252312433235
96.005417 0.011456328363058172
113.883392 0.0010415589828411465
116.251442 0.0011707795734653926
118.064987 0.0017668351867258045
118.659187 0.0013270749545061477
119.04921 0.06387517372990517
119.05912 0.002260744999778479
120.044197 0.00833452298321527
120.556442 0.0011543706095765995
130.065567 0.0016519724395042525
132.080566 0.001982202837766215
144.081009 0.001804165579572809
146.023712 0.0347968488225748
146.059921 0.011633545173057138
147.055176 0.00468475919025045
159.091782 0.001938719083460913
165.590103 0.0012273904988817292
181.073761 0.005106469562192435
182.057129 0.00929731893939021
188.070099 0.0012934365785341217
201.832062 0.001169959125270953
210.052933 0.012646798693190115
227.07901 0.1884163380771648
238.085983 0.025669362659433596
259.084686 0.006241969863296922
260.067627 0.0053702436567047845
277.096863 0.001559261793532571
278.078583 0.10277221240419217
328.107117 0.005391985533857436
464.158051 1.0
END IONS

BEGIN IONS
CHARGE=1+
PRECURSORTYPE=M+Na
FORMULA=C22H18N2O6
ONTOLOGY=
INCHIKEY=UKTFMPQSNSFGKD-UHFFFAOYSA-N
INCHI=InChI=1S/C22H18N2O6/c1-26-15-8-11(9-16(27-2)20(15)28-3)17-13(10-23)21(24)30-19-12-6-4-5-7-14(12)29-22(25)18(17)19/h4-9,17H,24H2,1-3H3
SMILES=COc1cc(C2C(C#N)=C(N)Oc3c2c(=O)oc2ccccc32)cc(OC)c1OC
IONMODE=positive
INSTRUMENTTYPE=LC-ESI-Orbitrap
INSTRUMENT=Orbitrap
COMMENT=DB#=CCMSLIB00010120007; origin=GNPS
NUM_PEAKS=15
COMPOUND_NAME="2-amino-5-oxo-4-(3,4,5-trimethoxyphenyl)-4H-pyrano[3,2-c]chromene-3-carbonitri le "
PRECURSOR_MZ=429.106
COLLISION_ENERGY=205060
PARENT_MASS=428.0987235480092
58.419922 0.006138380049117241
66.739853 0.00670962937649666
71.620201 0.005771148338659043
82.394783 0.007069210426320313
92.3731 0.008262713485309457
104.28009 0.0071202148305506184
148.307266 0.00742624125593245
194.76619 0.007122765050762134
211.390106 0.008323918770385822
219.65332 0.006842240827495454
230.321594 0.006459707795768164
271.7854 0.006028720580022085
414.080231 0.007472145219739724
429.105469 1.0
447.11673 0.025071214899406565
END IONS

BEGIN IONS
CHARGE=1+
PRECURSORTYPE=M+Na
FORMULA=C11H16N2O5
ONTOLOGY=
INCHIKEY=XACKNLSZYYIACO-UHFFFAOYSA-N
INCHI=InChI=1S/C11H16N2O5/c1-2-6-4-13(11(17)12-10(6)16)9-3-7(15)8(5-14)18-9/h4,7-9,14-15H,2-3,5H2,1H3,(H,12,16,17)
SMILES=CCc1cn(C2CC(O)C(CO)O2)c(=O)nc1O
IONMODE=positive
INSTRUMENTTYPE=LC-ESI-Orbitrap
INSTRUMENT=Orbitrap
COMMENT=DB#=CCMSLIB00010124363; origin=GNPS
NUM_PEAKS=22
COMPOUND_NAME=5-Ethyl-2'-deoxyuridine
PRECURSOR_MZ=279.095
COLLISION_ENERGY=205060
PARENT_MASS=278.08772354800925
56.96521 0.012833326751101512
60.957981 0.002627829473613858
73.944191 0.0028870681423017763
84.960052 0.0029792193878119344
104.276619 0.003380229203438558
107.662277 0.0023402365755381986
139.036789 0.02887979528246382
143.99501 0.009988789952881346
149.0233 0.005386290932621237
163.047714 0.3854241033228119
181.058228 0.0035138991419807657
213.949921 0.004764523188190059
215.033432 0.03908427990890191
219.055984 0.010466761248274696
233.044983 0.025701083637888138
237.035034 0.0030177001276952974
238.049606 0.009793348300315845
251.080368 0.002668335515596345
256.022247 0.019491507401972846
256.054718 0.0035189623972285765
279.026184 0.024877798334594085
279.094849 1.0
END IONS

BEGIN IONS
CHARGE=1+
PRECURSORTYPE=M+Na
FORMULA=C18H21NO3
ONTOLOGY=
INCHIKEY=FQTHQCIXDOKIDK-UHFFFAOYSA-N
INCHI=InChI=1S/C18H21NO3/c1-5-19(15-9-7-6-8-13(15)2)18(20)14-10-11-16(21-3)17(12-14)22-4/h6-12H,5H2,1-4H3
SMILES=CCN(C(=O)c1ccc(OC)c(OC)c1)c1ccccc1C
IONMODE=positive
INSTRUMENTTYPE=LC-ESI-Orbitrap
INSTRUMENT=Orbitrap
COMMENT=DB#=CCMSLIB00010115144; origin=GNPS
NUM_PEAKS=40
COMPOUND_NAME="(3,4-dimethoxyphenyl)-N-ethyl-N-(2-methylphenyl)carboxamide "
PRECURSOR_MZ=322.141
COLLISION_ENERGY=205060
PARENT_MASS=321.13372354800924
55.535252 0.001199268689678361
62.304909 0.001082255217368047
65.03891 0.010076053980941609
66.042313 0.0023999701973850115
66.399834 0.001130971030329892
67.054771 0.0030729170646716744
68.326012 0.0013568786727902126
83.245651 0.001498250051581449
91.054176 0.020642131727558247
92.057808 0.011834121701652899
92.368599 0.0014648176309213594
96.052589 0.0012704319850834092
100.531326 0.00130004355766806
103.054001 0.003129752179793827
104.280273 0.001423743514110392
109.064919 0.006179266550003439
110.067833 0.0024878497031201046
119.049019 0.3791198294373419
120.052353 0.2341549430311552
126.210091 0.0013688188230259587
144.080795 0.022954700025217597
155.072052 0.0015130558378737744
156.079773 0.0022633748786880735
158.096161 0.004671464378233393
159.067719 0.0052933074025110615
160.075378 0.002366537776724922
161.079575 0.0014729369330816668
162.090942 0.001465772842940219
172.075348 0.09670088872926234
174.090988 0.07789371928993359
175.094116 0.0018478576504841015
186.090759 0.035079206180603846
187.098648 0.33924784695210947
188.1073 0.004982385890372227
278.876862 0.0012556261987910838
305.134338 0.0027610403405139805
322.139313 1.0
340.150787 0.009238333040401647
363.118622 0.0023536424144703157
363.16687 0.05040797105325498
END IONS

BEGIN IONS
CHARGE=1+
PRECURSORTYPE=M+Na
FORMULA=C22H21N5O2S
ONTOLOGY=
INCHIKEY=JBMKWMCVEFIMKX-UHFFFAOYSA-N
INCHI=InChI=1S/C22H21N5O2S/c1-3-15-6-4-5-7-17(15)25-18(28)12-30-22-26-19-20(23-13-24-21(19)29)27(22)16-10-8-14(2)9-11-16/h4-11,13H,3,12H2,1-2H3,(H,25,28)(H,23,24,29)
SMILES=CCc1ccccc1N=C(O)CSc1nc2c(O)ncnc2n1-c1ccc(C)cc1
IONMODE=positive
INSTRUMENTTYPE=LC-ESI-Orbitrap
INSTRUMENT=Orbitrap
COMMENT=DB#=CCMSLIB00010123845; origin=GNPS
NUM_PEAKS=20
COMPOUND_NAME=N-(2-ethylphenyl)-2-[9-(4-methylphenyl)-6-oxohydropurin-8-ylthio]acetamide
PRECURSOR_MZ=442.131
COLLISION_ENERGY=205060
PARENT_MASS=441.1237235480092
66.736923 0.0008814454407684294
73.947098 0.0013745122781604715
82.392097 0.00100471215011644
84.9599 0.0009088708091161924
92.608223 0.0008354415970883106
118.637787 0.0008419293186329427
118.646744 0.0012459374330032165
140.234543 0.0008454680758391057
145.991684 0.0008507762116483501
150.929565 0.0007802959639589375
160.662949 0.0008770219942607256
244.689636 0.000844288490103718
249.074982 0.003238257740072975
279.030823 0.03951199358541277
280.037384 0.011722428141848724
289.070496 0.0010518955795319463
293.046082 0.002004116164423635
321.041382 0.004674698269341299
415.296204 0.001049831304495018
442.130371 1.0
END IONS

BEGIN IONS
CHARGE=1+
PRECURSORTYPE=M+Na
FORMULA=C16H11ClN2O2
ONTOLOGY=
INCHIKEY=BXABDEVENMKCAF-UHFFFAOYSA-N
INCHI=InChI=1S/C16H11ClN2O2/c17-11-5-3-6-12(9-11)19-16(20)13-8-10-4-1-2-7-14(10)21-15(13)18/h1-9,18H,(H,19,20)
SMILES=N=c1oc2ccccc2cc1C(O)=Nc1cccc(Cl)c1
IONMODE=positive
INSTRUMENTTYPE=LC-ESI-Orbitrap
INSTRUMENT=Orbitrap
COMMENT=DB#=CCMSLIB00010116181; origin=GNPS
NUM_PEAKS=12
COMPOUND_NAME=N-(3-chlorophenyl)(2-iminochromen-3-yl)carboxamide
PRECURSOR_MZ=321.04
COLLISION_ENERGY=205060
PARENT_MASS=320.03272354800924
89.461746 0.0167405058117674
101.742706 0.019446124670993478
104.284782 0.029761807451486863
126.253799 0.018563324559826056
155.048218 0.01705929474080008
215.865784 0.01958508394775131
258.614685 0.018269057856103582
267.463593 0.018195491180172964
279.122559 0.016241887230459873
291.714996 0.018269057856103582
321.039429 1.0
321.167725 0.07561019470646896
END IONS

BEGIN IONS
CHARGE=1+
PRECURSORTYPE=M+Na
FORMULA=C28H27N3O3
ONTOLOGY=
INCHIKEY=FGSVYYREXDSLJB-UHFFFAOYSA-N
INCHI=InChI=1S/C28H27N3O3/c1-18-13-19(2)27(20(3)14-18)30-25(32)17-31-24-12-8-7-11-22(24)23(15-26(31)33)28(34)29-16-21-9-5-4-6-10-21/h4-15H,16-17H2,1-3H3,(H,29,34)(H,30,32)
SMILES=Cc1cc(C)c(N=C(O)Cn2c(=O)cc(C(O)=NCc3ccccc3)c3ccccc32)c(C)c1
IONMODE=positive
INSTRUMENTTYPE=LC-ESI-Orbitrap
INSTRUMENT=Orbitrap
COMMENT=DB#=CCMSLIB00010122243; origin=GNPS
NUM_PEAKS=16
COMPOUND_NAME="2-{2-oxo-4-[N-benzylcarbamoyl]hydroquinolyl}-N-(2,4,6-trimethylphenyl)acetamid e "
PRECURSOR_MZ=476.194
COLLISION_ENERGY=205060
PARENT_MASS=475.18672354800924
77.49057 0.000521817817024225
91.048653 0.0004877014591241356
91.054352 0.01382849706883625
92.374268 0.000687688299957517
104.277344 0.0006344017980945202
116.012321 0.000501672919978458
155.430817 0.0005348145247956877
242.547409 0.0004725927863398103
291.111328 0.0011749023825402228
319.110687 0.0018854973799449428
341.088165 0.0022321845597487087
458.183319 0.002246318479450174
476.193634 1.0
483.155273 0.0015855983481184422
494.205841 0.0006413875285216814
498.176239 0.0005817651316200965
END IONS

BEGIN IONS
CHARGE=1+
PRECURSORTYPE=M+Na
FORMULA=C18H18O
ONTOLOGY=
INCHIKEY=KPFVYLKSZJDQAE-UHFFFAOYSA-N
INCHI=InChI=1S/C18H18O/c1-13-11-14(2)17(15(3)12-13)9-10-18(19)16-7-5-4-6-8-16/h4-12H,1-3H3/b10-9+
SMILES=Cc1cc(C)c(C=CC(=O)c2ccccc2)c(C)c1
IONMODE=positive
INSTRUMENTTYPE=LC-ESI-Orbitrap
INSTRUMENT=Orbitrap
COMMENT=DB#=CCMSLIB00010115420; origin=GNPS
NUM_PEAKS=28
COMPOUND_NAME="(2E)-1-phenyl-3-(2,4,6-trimethylphenyl)prop-2-en-1-one "
PRECURSOR_MZ=273.125
COLLISION_ENERGY=205060
PARENT_MASS=272.1177235480092
51.630379 0.0019803460608015812
53.46785 0.0024313481386616046
81.17765 0.0019608432682454717
84.960007 0.003035122091544483
103.05423 0.021781368819747876
105.03347 0.0021729361372931585
115.054199 0.026336896114312367
118.718643 0.001978720828088572
129.0336 0.044946623294623
143.049225 0.034228213552328024
145.06488 0.008929028525271962
155.059921 0.007584961071613442
157.989624 0.002443537384009173
171.044128 0.07391070808951457
189.054886 0.01641647563410486
202.077469 0.0173355447333115
215.086517 0.0029985543555017783
217.100891 0.014934263399840565
226.076508 0.0026133742025186233
227.085663 0.0035186288236646883
228.09285 0.007966890759170578
234.158844 0.001977095595375563
237.554718 0.0020867988035036767
238.448593 0.0023777154591323045
272.61319 0.0037420983217034388
273.090393 0.651949100961894
273.124603 1.0
294.047302 0.0020729843254430995
END IONS

BEGIN IONS
CHARGE=1+
PRECURSORTYPE=M+Na
FORMULA=C20H27NO11
ONTOLOGY=
INCHIKEY=XUCIJNAGGSZNQT-UHFFFAOYSA-N
INCHI=InChI=1S/C20H27NO11/c21-6-10(9-4-2-1-3-5-9)30-20-18(28)16(26)14(24)12(32-20)8-29-19-17(27)15(25)13(23)11(7-22)31-19/h1-5,10-20,22-28H,7-8H2
SMILES=N#CC(OC1OC(COC2OC(CO)C(O)C(O)C2O)C(O)C(O)C1O)c1ccccc1
IONMODE=positive
INSTRUMENTTYPE=LC-ESI-Orbitrap
INSTRUMENT=Orbitrap
COMMENT=DB#=CCMSLIB00010122953; origin=GNPS
NUM_PEAKS=29
COMPOUND_NAME=amygdalin
PRECURSOR_MZ=480.148
COLLISION_ENERGY=205060
PARENT_MASS=479.14072354800925
53.67461 0.0007599891964301731
61.028648 0.001060649816028546
67.750999 0.0007079420639618833
69.033737 0.0015053243458547111
81.033318 0.0008926335874294553
85.028419 0.004804506169985429
92.366577 0.0009052663865722441
97.02813 0.0017640440722990255
109.02861 0.0010361421856915358
113.020027 0.0007223434549846625
114.226158 0.000783738858818616
127.038292 0.0009815684933946883
133.310806 0.0008342700553897711
139.402115 0.0007438192135274035
141.838852 0.0008522086301725312
185.041763 0.0018312505637386619
201.035767 0.0018870875359497882
203.051025 0.002669815770836981
210.172638 0.001548275862940193
259.078186 0.0010369001536401031
301.087891 0.0012779339612845131
313.815674 0.0007728746515558177
329.084106 0.001480816715517701
347.094971 0.014127259281380694
356.34024 0.0007577152925844711
363.083679 0.000934574480583514
374.103912 0.006942481096911003
480.146881 1.0
482.879578 0.0009552922711776877
END IONS

BEGIN IONS
CHARGE=1+
PRECURSORTYPE=M+Na
FORMULA=C20H27NO11
ONTOLOGY=
INCHIKEY=XUCIJNAGGSZNQT-UHFFFAOYSA-N
INCHI=InChI=1S/C20H27NO11/c21-6-10(9-4-2-1-3-5-9)30-20-18(28)16(26)14(24)12(32-20)8-29-19-17(27)15(25)13(23)11(7-22)31-19/h1-5,10-20,22-28H,7-8H2/t10?,11-,12-,13-,14-,15+,16+,17-,18-,19-,20-/m1/s1
SMILES=N#CC(OC1OC(COC2OC(CO)C(O)C(O)C2O)C(O)C(O)C1O)c1ccccc1
IONMODE=positive
INSTRUMENTTYPE=LC-ESI-Orbitrap
INSTRUMENT=Orbitrap
COMMENT=DB#=CCMSLIB00010125023; origin=GNPS
NUM_PEAKS=18
COMPOUND_NAME=amygdalin
PRECURSOR_MZ=480.148
COLLISION_ENERGY=205060
PARENT_MASS=479.14072354800925
53.595249 0.0007171546011871311
61.028851 0.0008924829256256174
69.033943 0.0016966304473610939
76.162247 0.0007147381311718993
85.028587 0.005989892174422954
88.446037 0.0008342191485916947
97.028236 0.0014885455293827986
104.296448 0.0007504481880636584
185.041534 0.0009512836959962583
203.052414 0.0012179008876768353
210.555679 0.001001224076311049
279.598114 0.0008938254089674128
301.088287 0.0010235092997848535
329.084015 0.0019433788855830983
347.094238 0.015070986491664119
363.090912 0.0011239270537511535
374.105927 0.005756031576282186
480.146637 1.0
END IONS

BEGIN IONS
CHARGE=1+
PRECURSORTYPE=M+Na
FORMULA=C24H26ClN3O3
ONTOLOGY=
INCHIKEY=BUQYDIOQGKXORD-UHFFFAOYSA-N
INCHI=InChI=1S/C24H26ClN3O3/c1-16-3-6-20-18(12-24(30)31-22(20)11-16)14-27-7-9-28(10-8-27)15-23(29)26-21-13-19(25)5-4-17(21)2/h3-6,11-13H,7-10,14-15H2,1-2H3,(H,26,29)
SMILES=Cc1ccc2c(CN3CCN(CC(O)=Nc4cc(Cl)ccc4C)CC3)cc(=O)oc2c1
IONMODE=positive
INSTRUMENTTYPE=LC-ESI-Orbitrap
INSTRUMENT=Orbitrap
COMMENT=DB#=CCMSLIB00010120163; origin=GNPS
NUM_PEAKS=31
COMPOUND_NAME=N-(5-chloro-2-methylphenyl)-2-{4-[(7-methyl-2-oxochromen-4-yl)methyl]piperazin yl}acetamide
PRECURSOR_MZ=462.155
COLLISION_ENERGY=205060
PARENT_MASS=461.1477235480092
65.723961 0.0008099895743916167
67.015793 0.0007808810381648553
70.530884 0.0008114747037909413
82.411812 0.0009813735070736713
90.749611 0.0008257319460244571
104.304207 0.0014096848258388754
106.065369 0.0014260212492314456
128.049759 0.0015724550080048474
130.065353 0.005871013541409863
132.044708 0.007041889559837348
146.059509 0.00127513210226007
158.060257 0.001696314799908516
186.95549 0.0274894481556178
187.958771 0.01660226155504929
188.953186 0.02760974363696309
189.956635 0.014679316008803848
203.080734 0.0015982962595530949
208.541824 0.003770743544885066
215.081955 0.0037169818606295167
231.001022 0.0015513661705344388
231.994614 0.001713245275060816
232.999023 0.0015029509521164578
243.077637 0.0016294839769389108
288.088013 0.00615497028256072
303.220581 0.0008955330277927116
328.011261 0.0008741471644424379
426.372986 0.0009234534605000134
441.505768 0.0042911328864083925
442.002777 0.008736719230346541
462.001221 0.03598468534563416
462.155182 1.0
END IONS

BEGIN IONS
CHARGE=1+
PRECURSORTYPE=M+Na
FORMULA=C20H16BrN5O2S
ONTOLOGY=
INCHIKEY=QJDFVSQDJWSMQF-UHFFFAOYSA-N
INCHI=InChI=1S/C20H16BrN5O2S/c1-12-5-7-15(8-6-12)26-18-17(19(28)23-11-22-18)25-20(26)29-10-16(27)24-14-4-2-3-13(21)9-14/h2-9,11H,10H2,1H3,(H,24,27)(H,22,23,28)
SMILES=Cc1ccc(-n2c(SCC(O)=Nc3cccc(Br)c3)nc3c(O)ncnc32)cc1
IONMODE=positive
INSTRUMENTTYPE=LC-ESI-Orbitrap
INSTRUMENT=Orbitrap
COMMENT=DB#=CCMSLIB00010125144; origin=GNPS
NUM_PEAKS=18
COMPOUND_NAME=N-(3-bromophenyl)-2-[9-(4-methylphenyl)-6-oxohydropurin-8-ylthio]acetamide
PRECURSOR_MZ=492.01
COLLISION_ENERGY=205060
PARENT_MASS=491.0027235480092
54.451851 0.0011923416418180108
56.965191 0.0029862693638596422
62.125851 0.0012376329015402474
62.870689 0.0013439689026272376
118.177063 0.0013306769024913638
134.486267 0.0015069189783670236
212.08168 0.005213910127371822
213.08667 0.0015920862384968815
244.054016 0.006255609100983263
245.055466 0.0027479979540165718
271.065491 0.0058529107264964205
273.061127 0.001997738390791696
279.031097 0.023490902610499596
280.039032 0.0033505686268428497
333.031586 0.0028548262514048904
491.500824 0.05006653384512457
492.008972 1.0
492.498474 0.0066238467343771
END IONS

BEGIN IONS
CHARGE=1+
PRECURSORTYPE=M+Na
FORMULA=C23H38N2O9
ONTOLOGY=
INCHIKEY=ZZHGKGQIPZGFLE-UHFFFAOYSA-N
INCHI=InChI=1S/C23H38N2O9/c1-10(2)9-12(20(28)29)24-18(26)13(11(3)4)25-19(27)16-14-15(32-22(5,6)31-14)17-21(30-16)34-23(7,8)33-17/h10-17,21H,9H2,1-8H3,(H,24,26)(H,25,27)(H,28,29)
SMILES=CC(C)CC(N=C(O)C(N=C(O)C1OC2OC(C)(C)OC2C2OC(C)(C)OC12)C(C)C)C(=O)O
IONMODE=positive
INSTRUMENTTYPE=LC-ESI-Orbitrap
INSTRUMENT=Orbitrap
COMMENT=DB#=CCMSLIB00010121083; origin=GNPS
NUM_PEAKS=18
COMPOUND_NAME="4-methyl-2-{3-methyl-2-[(4,4,11,11-tetramethyl-3,5,8,10,12-pentaoxatricyclo[7. 3.0.0<2,6>]dodec-7-yl)carbonylamino]butanoylamino}pentanoic acid "
PRECURSOR_MZ=509.247
COLLISION_ENERGY=205060
PARENT_MASS=508.23972354800924
61.041191 0.0011812436580770815
71.013153 0.0017398062330075195
72.081192 0.003019594443980649
73.90506 0.0011932927737150264
139.922958 0.0013443370447478336
157.976578 0.0014979632691316288
208.490875 0.002359905362803175
227.536087 0.0011765100769336033
239.052902 0.008935279896653013
256.199158 0.001302165140015027
297.094147 0.130477721615511
338.120209 0.005123025773919001
350.156921 0.026113876191894217
378.152802 0.0025737771653766943
395.183014 0.001963575523426493
396.162628 0.06716349186813791
435.212341 0.00226953699551859
509.246887 1.0
END IONS

BEGIN IONS
CHARGE=1+
PRECURSORTYPE=M+Na
FORMULA=C10H11NO4
ONTOLOGY=
INCHIKEY=VGHIVGWATFYZKU-UHFFFAOYSA-N
INCHI=InChI=1S/C10H11NO4/c1-14-9-4-7(5-12)2-3-8(9)15-6-10(11)13/h2-5H,6H2,1H3,(H2,11,13)
SMILES=COc1cc(C=O)ccc1OCC(=N)O
IONMODE=positive
INSTRUMENTTYPE=LC-ESI-Orbitrap
INSTRUMENT=Orbitrap
COMMENT=DB#=CCMSLIB00010123584; origin=GNPS
NUM_PEAKS=16
COMPOUND_NAME=2-(4-formyl-2-methoxyphenoxy)acetamide
PRECURSOR_MZ=232.058
COLLISION_ENERGY=205060
PARENT_MASS=231.05072354800924
50.46225 0.012592215721190536
54.5681 0.012248791656067159
66.736732 0.015975578733146784
69.019623 0.011822691427117782
71.452431 0.013673365555838209
74.627647 0.014220300178071738
81.032188 0.013717883490206055
88.79705 0.013406257949631137
92.369423 0.014245738997710507
118.647011 0.017438310862375985
138.407196 0.013380819129992368
174.128204 0.02105062325108115
185.972946 0.013088272704146527
208.953247 0.027683795471890104
213.968414 0.05351055711015009
232.057617 1.0
END IONS

BEGIN IONS
CHARGE=1+
PRECURSORTYPE=M+Na
FORMULA=C23H22F3NO6
ONTOLOGY=
INCHIKEY=VGAYRQZKEXRRFB-UHFFFAOYSA-N
INCHI=InChI=1S/C23H22F3NO6/c1-2-31-17-5-3-4-6-18(17)32-21-19(29)14-7-8-16(28)15(13-27-9-11-30-12-10-27)20(14)33-22(21)23(24,25)26/h3-8,28H,2,9-13H2,1H3
SMILES=CCOc1ccccc1Oc1c(C(F)(F)F)oc2c(CN3CCOCC3)c(O)ccc2c1=O
IONMODE=positive
INSTRUMENTTYPE=LC-ESI-Orbitrap
INSTRUMENT=Orbitrap
COMMENT=DB#=CCMSLIB00010119226; origin=GNPS
NUM_PEAKS=9
COMPOUND_NAME=3-(2-ethoxyphenoxy)-7-hydroxy-8-(morpholin-4-ylmethyl)-2-(trifluoromethyl)chro men-4-one
PRECURSOR_MZ=488.129
COLLISION_ENERGY=205060
PARENT_MASS=487.12172354800924
58.21315 0.0012962355469470675
66.735558 0.0016567145054499847
108.594017 0.0015312380538177008
131.26825 0.0015838743619176843
153.717346 0.0014009764832672367
212.986115 0.0014695631877611546
401.059753 1.0
442.087067 0.010618178879442119
488.127686 0.010467713473459338
END IONS

BEGIN IONS
CHARGE=1+
PRECURSORTYPE=M+Na
FORMULA=C6H7NO5
ONTOLOGY=
INCHIKEY=JKCBZBFTTXFZGH-UHFFFAOYSA-N
INCHI=InChI=1S/C6H7NO5/c8-4(1-2-5(9)10)7-3-6(11)12/h1-2H,3H2,(H,7,8)(H,9,10)(H,11,12)/b2-1-
SMILES=O=C(O)C=CC(O)=NCC(=O)O
IONMODE=positive
INSTRUMENTTYPE=LC-ESI-Orbitrap
INSTRUMENT=Orbitrap
COMMENT=DB#=CCMSLIB00010125529; origin=GNPS
NUM_PEAKS=45
COMPOUND_NAME=(2Z)-3-[N-(carboxymethyl)carbamoyl]prop-2-enoic acid
PRECURSOR_MZ=196.022
COLLISION_ENERGY=205060
PARENT_MASS=195.01472354800924
51.940479 0.06489142971766712
55.152618 0.030326964545408956
55.859631 0.027054811694498773
55.934891 0.2831477859686074
56.828259 0.02388295471641342
56.96529 0.21701519482473297
61.0112 0.3935860789328519
62.019001 0.044556441502432174
67.935226 0.03230780803369941
71.92981 0.12100697056316133
72.937553 0.34632164886414923
79.021408 0.22475051401634824
83.929939 0.09964394965147184
87.906761 0.059450378616919916
90.947853 0.4286394864851311
98.021294 0.9487488089865102
98.028122 0.03682112231081691
101.950302 0.052492352439697104
102.948486 0.04346572388546211
104.281693 0.02741838423348879
105.917412 0.0461361014994233
105.934471 0.02583872423649767
106.925056 0.04811694498771375
108.958267 0.10507246376811594
117.935143 0.028985507246376812
118.924843 0.21845694799658993
118.943207 0.12080637881751166
119.950706 0.05162730053658292
120.989723 0.1504939571736623
121.564934 0.028396268993530916
124.935783 0.12926884308710695
128.98613 0.029775337244872375
131.951126 0.057193721478361166
133.017578 0.030540093275161728
133.959213 0.12831603229527105
136.935379 0.16950002507396822
137.970795 0.03598114437590893
140.950928 0.03932851913143774
143.974716 0.03175618073316283
146.99614 0.061656887819066246
147.263504 0.029273857880748207
149.961655 0.06099242766160173
172.977524 0.12376510706584425
190.986237 0.05077478561757184
196.022079 1.0
END IONS

BEGIN IONS
CHARGE=1+
PRECURSORTYPE=M+Na
FORMULA=C21H25N3O8S
ONTOLOGY=
INCHIKEY=CVGAINFJTLYTKX-UHFFFAOYSA-N
INCHI=InChI=1S/C21H25N3O8S/c1-11-8-13-14(24(3)21(26)23(13)2)10-16(11)33(27,28)22-17-12(20(25)32-7)9-15(29-4)18(30-5)19(17)31-6/h8-10,22H,1-7H3
SMILES=COC(=O)c1cc(OC)c(OC)c(OC)c1NS(=O)(=O)c1cc2c(cc1C)n(C)c(=O)n2C
IONMODE=positive
INSTRUMENTTYPE=LC-ESI-Orbitrap
INSTRUMENT=Orbitrap
COMMENT=DB#=CCMSLIB00010120611; origin=GNPS
NUM_PEAKS=15
COMPOUND_NAME="methyl 3,4,5-trimethoxy-2-{[(1,3,6-trimethyl-2-oxo(3-hydrobenzimidazol-5-yl))s ulfonyl]amino}benzoate "
PRECURSOR_MZ=502.125
COLLISION_ENERGY=205060
PARENT_MASS=501.1177235480092
56.65361 0.001395405760951887
69.684174 0.0013979661384949178
92.388138 0.0018414235289478846
104.297501 0.0018747084370072874
131.02594 0.0017451533333299196
157.986069 0.002076466187398129
193.036346 0.00159562728481691
208.060806 0.0031487523024195056
216.02626 0.020070287484311288
248.05249 0.3047504732857888
257.133484 0.0016627091764443217
263.075989 1.0
304.10379 0.00270785528950957
438.166138 0.011609263855611092
502.124542 0.436233541253059
END IONS

BEGIN IONS
CHARGE=1+
PRECURSORTYPE=M+Na
FORMULA=C25H20FN3O3
ONTOLOGY=
INCHIKEY=AJWDAMKOZTXGIF-UHFFFAOYSA-N
INCHI=InChI=1S/C25H20FN3O3/c26-18-10-12-19(13-11-18)28-23(30)16-29-22-9-5-4-8-20(22)21(14-24(29)31)25(32)27-15-17-6-2-1-3-7-17/h1-14H,15-16H2,(H,27,32)(H,28,30)
SMILES=O=C(Cn1c(=O)cc(C(O)=NCc2ccccc2)c2ccccc21)Nc1ccc(F)cc1
IONMODE=positive
INSTRUMENTTYPE=LC-ESI-Orbitrap
INSTRUMENT=Orbitrap
COMMENT=DB#=CCMSLIB00010122178; origin=GNPS
NUM_PEAKS=17
COMPOUND_NAME=N-(4-fluorophenyl)-2-{2-oxo-4-[N-benzylcarbamoyl]hydroquinolyl}acetamide
PRECURSOR_MZ=452.138
COLLISION_ENERGY=205060
PARENT_MASS=451.1307235480092
66.748291 0.0015280185850463715
73.959793 0.0013409333588392859
81.782593 0.0011098831044735352
91.054314 0.013070241615892516
118.662727 0.001314273714104776
137.116776 0.0013535616116082641
269.128082 0.0018109849896845883
313.188934 0.0012955651914840676
353.98172 0.0014424270940566297
431.10733 0.0031280649821824706
431.608734 0.0031608048967687106
440.111633 0.0021439966923332008
440.612244 0.0021355778571538818
452.137909 1.0
474.118164 0.0017375540383983072
492.130859 0.0031014053374479613
493.16806 0.01087199020795926
END IONS

BEGIN IONS
CHARGE=1+
PRECURSORTYPE=M+Na
FORMULA=C17H26O4
ONTOLOGY=
INCHIKEY=NLDDIKRKFXEWBK-UHFFFAOYSA-N
INCHI=InChI=1S/C17H26O4/c1-3-4-5-6-14(18)12-15(19)9-7-13-8-10-16(20)17(11-13)21-2/h8,10-11,14,18,20H,3-7,9,12H2,1-2H3/t14-/m0/s1
SMILES=CCCCCC(O)CC(=O)CCc1ccc(O)c(OC)c1
IONMODE=positive
INSTRUMENTTYPE=LC-ESI-Orbitrap
INSTRUMENT=Orbitrap
COMMENT=DB#=CCMSLIB00010121909; origin=GNPS
NUM_PEAKS=11
COMPOUND_NAME=6-Gingerol
PRECURSOR_MZ=317.172
COLLISION_ENERGY=205060
PARENT_MASS=316.16472354800925
59.685638 0.006818699506864552
69.411583 0.006380882792324008
78.761269 0.007067190074576753
79.254082 0.007067190074576753
92.370949 0.00720918468469801
104.279137 0.009336145615472679
137.606232 0.006614582254815244
203.067474 0.02792856487822483
217.082626 0.009232607878925929
249.085144 0.007531630778515032
317.171814 1.0
END IONS

BEGIN IONS
CHARGE=1+
PRECURSORTYPE=M+Na
FORMULA=C19H19NO4
ONTOLOGY=
INCHIKEY=JBZRVLDDCKRMOY-UHFFFAOYSA-N
INCHI=InChI=1S/C19H19NO4/c1-13(21)20-16-8-6-15(7-9-16)17(22)10-4-14-5-11-18(23-2)19(12-14)24-3/h4-12H,1-3H3,(H,20,21)/b10-4+
SMILES=COc1ccc(C=CC(=O)c2ccc(N=C(C)O)cc2)cc1OC
IONMODE=positive
INSTRUMENTTYPE=LC-ESI-Orbitrap
INSTRUMENT=Orbitrap
COMMENT=DB#=CCMSLIB00010121669; origin=GNPS
NUM_PEAKS=11
COMPOUND_NAME="N-{4-[(2E)-3-(3,4-dimethoxyphenyl)prop-2-enoyl]phenyl}acetamide "
PRECURSOR_MZ=348.121
COLLISION_ENERGY=205060
PARENT_MASS=347.1137235480092
78.937286 0.0010632932274880417
82.415642 0.0012738038058594115
92.396431 0.001040523715949914
141.778961 0.0012201021277034498
142.240143 0.0009700671142092922
166.170303 0.0010439606233518955
272.655487 0.0012153763800257253
307.11319 0.001116135678793508
333.096588 0.0014099912616629305
348.120056 1.0
354.261139 0.0012347089841618715
END IONS

BEGIN IONS
CHARGE=1+
PRECURSORTYPE=M+Na
FORMULA=C23H18O5
ONTOLOGY=
INCHIKEY=BYLCNWQEOASNRQ-UHFFFAOYSA-N
INCHI=InChI=1S/C23H18O5/c1-26-18-11-8-15(12-20(18)27-2)22-21(14-6-4-3-5-7-14)17-10-9-16(24)13-19(17)28-23(22)25/h3-13,24H,1-2H3
SMILES=COc1ccc(-c2c(-c3ccccc3)c3ccc(O)cc3oc2=O)cc1OC
IONMODE=positive
INSTRUMENTTYPE=LC-ESI-Orbitrap
INSTRUMENT=Orbitrap
COMMENT=DB#=CCMSLIB00010119511; origin=GNPS
NUM_PEAKS=10
COMPOUND_NAME="3-(3,4-Dimethoxyphenyl)-7-hydroxy-4-phenylcoumarin "
PRECURSOR_MZ=397.105
COLLISION_ENERGY=205060
PARENT_MASS=396.09772354800924
54.555969 0.0025529646652857592
82.40934 0.002868578428851306
83.357628 0.0024933487321678223
91.375381 0.002757529141670836
128.675278 0.0026780412308469205
129.903152 0.0029515731592703945
185.421097 0.003613193122892986
198.352631 0.003198219470797544
397.104187 1.0
415.115448 0.020430730961476417
END IONS

BEGIN IONS
CHARGE=1+
PRECURSORTYPE=M+Na
FORMULA=C27H24N4O5S
ONTOLOGY=
INCHIKEY=FVPFSLOUODJMBE-UHFFFAOYSA-N
INCHI=InChI=1S/C27H24N4O5S/c1-33-21-13-18(14-22(34-2)24(21)35-3)25-30-29-23(36-25)16-37-27-28-20-12-8-7-11-19(20)26(32)31(27)15-17-9-5-4-6-10-17/h4-14H,15-16H2,1-3H3
SMILES=COc1cc(-c2nnc(CSc3nc4ccccc4c(=O)n3Cc3ccccc3)o2)cc(OC)c1OC
IONMODE=positive
INSTRUMENTTYPE=LC-ESI-Orbitrap
INSTRUMENT=Orbitrap
COMMENT=DB#=CCMSLIB00010121765; origin=GNPS
NUM_PEAKS=9
COMPOUND_NAME="3-benzyl-2-{[5-(3,4,5-trimethoxyphenyl)(1,3,4-oxadiazol-2-yl)]methylthio}-3-hy droquinazolin-4-one "
PRECURSOR_MZ=539.136
COLLISION_ENERGY=205060
PARENT_MASS=538.1287235480092
91.054207 0.004364921900364345
173.243164 0.003985479653745589
175.692917 0.003722274996760044
195.064713 0.015093517817084788
259.084045 0.1932803984678015
303.040009 0.003731627446500647
393.111969 0.003427004797806717
395.099304 0.005648879643324288
539.135681 1.0
END IONS

BEGIN IONS
CHARGE=1+
PRECURSORTYPE=M+Na
FORMULA=C24H23N5OS
ONTOLOGY=
INCHIKEY=FQLVCNZBDVLHNO-UHFFFAOYSA-N
INCHI=InChI=1S/C24H23N5OS/c1-14-17(18-8-4-5-9-19(18)26-14)12-13-25-15(2)22-16(3)28-29(23(22)30)24-27-20-10-6-7-11-21(20)31-24/h4-11,25-26H,12-13H2,1-3H3/b22-15+
SMILES=CC1=NN(c2nc3ccccc3s2)C(=O)C1=C(C)NCCc1c(C)[nH]c2ccccc12
IONMODE=positive
INSTRUMENTTYPE=LC-ESI-Orbitrap
INSTRUMENT=Orbitrap
COMMENT=DB#=CCMSLIB00010115346; origin=GNPS
NUM_PEAKS=32
COMPOUND_NAME="1-benzothiazol-2-yl-3-methyl-4-({[2-(2-methylindol-3-yl)ethyl]amino}ethylidene )-1,2-diazolin-5-one "
PRECURSOR_MZ=452.152
COLLISION_ENERGY=205060
PARENT_MASS=451.1447235480092
54.282829 0.0002410893142125483
66.742264 0.00023112694585665787
67.306862 0.00024995238674985773
91.054558 0.0004879499314726469
93.071083 0.000264930292278024
104.28746 0.00031439860411416957
115.05423 0.0006536687761237346
116.062866 0.0002805952576928034
117.057327 0.001345675493920482
117.069817 0.002048331639959733
119.050117 0.0002944051614137274
129.069214 0.0003424993534766467
130.065475 0.0020671570808529324
131.085464 0.0024360395339755236
137.070312 0.00038351682870745073
141.069656 0.0017177871285101547
142.652023 0.0002596399311511029
143.072922 0.036111043168522323
157.088837 0.0011755594659950703
158.096466 0.15112026488632044
210.911484 0.00045297858324403845
254.034836 0.002010818170150656
278.035645 0.08497659736614219
293.047729 0.0021004794853536697
293.291595 0.0003258725042206089
295.062134 0.009118040461231547
307.065796 0.0003413313516694044
319.062439 0.0006233694351240954
449.674622 0.0012257148377178288
451.144409 0.000375684346000061
452.151184 1.0
454.648285 0.0011814681810199431
END IONS

BEGIN IONS
CHARGE=1+
PRECURSORTYPE=M+Na
FORMULA=C25H17NO4
ONTOLOGY=
INCHIKEY=MPBPMDGZIQBQKR-UHFFFAOYSA-N
INCHI=InChI=1S/C25H17NO4/c1-15-12-18(26-24(27)23-14-17-7-3-4-8-21(17)29-23)10-11-19(15)20-13-16-6-2-5-9-22(16)30-25(20)28/h2-14H,1H3,(H,26,27)
SMILES=Cc1cc(NC(=O)c2cc3ccccc3o2)ccc1-c1cc2ccccc2oc1=O
IONMODE=positive
INSTRUMENTTYPE=LC-ESI-Orbitrap
INSTRUMENT=Orbitrap
COMMENT=DB#=CCMSLIB00010119589; origin=GNPS
NUM_PEAKS=11
COMPOUND_NAME=benzo[d]furan-2-yl-N-[3-methyl-4-(2-oxochromen-3-yl)phenyl]carboxamide
PRECURSOR_MZ=418.105
COLLISION_ENERGY=205060
PARENT_MASS=417.09772354800924
59.848389 0.00042749310822456135
63.076569 0.00045101892571449196
82.411324 0.0005815388720627373
86.781227 0.00045424164043914
110.165031 0.000455047319120302
136.227249 0.0005763825285033004
157.101486 0.0005256247715900939
415.898041 0.0007992332517127118
417.096039 0.0009950131712350796
418.103729 1.0
420.323792 0.0007971384871416906
END IONS

