BEGIN IONS
CHARGE=1+
PRECURSORTYPE=M+Na
FORMULA=C18H16ClN3O3
ONTOLOGY=
INCHIKEY=LTVSSQLGIHDDKJ-UHFFFAOYSA-N
INCHI=InChI=1S/C18H16ClN3O3/c1-11-13(14-4-2-3-5-17(14)21-11)8-9-20-18(23)15-10-12(22(24)25)6-7-16(15)19/h2-7,10,21H,8-9H2,1H3,(H,20,23)
SMILES=Cc1[nH]c2ccccc2c1CCN=C(O)c1cc([N+](=O)[O-])ccc1Cl
IONMODE=positive
INSTRUMENTTYPE=LC-ESI-Orbitrap
INSTRUMENT=Orbitrap
COMMENT=DB#=CCMSLIB00010110769; origin=GNPS
NUM_PEAKS=23
COMPOUND_NAME=(2-chloro-5-nitrophenyl)-N-[2-(2-methylindol-3-yl)ethyl]carboxamide
PRECURSOR_MZ=380.077
COLLISION_ENERGY=102040
PARENT_MASS=379.0697235480092
50.44891 0.0010370199940943434
56.228531 0.0012230772457380223
56.350121 0.0009888444557223195
67.434288 0.0011744864010007222
67.438728 0.001064014907837288
75.760223 0.0010004730339500494
78.36924 0.0010175005949263683
92.365562 0.0015748417371268524
104.273109 0.001070659809681705
111.200882 0.0011192506544190051
118.640808 0.001045741427765141
125.320412 0.0010482332659567974
130.733871 0.0011051302379996187
135.821671 0.0011051302379996187
144.080383 0.001645028512858508
157.088654 0.0015740111243963003
158.095901 0.001874692932856174
173.739182 0.0009888444557223195
210.866669 0.0011744864010007222
240.198425 0.0010245608031360614
379.570587 0.00958485560420639
380.077026 1.0
390.529083 0.0010822883879094349
END IONS

BEGIN IONS
CHARGE=1+
PRECURSORTYPE=M+Na
FORMULA=C21H25NO5S
ONTOLOGY=
INCHIKEY=SKSXXESXTVWIKU-UHFFFAOYSA-N
INCHI=InChI=1S/C21H25NO5S/c1-12(2)27-21(24)18-14-7-5-6-8-17(14)28-20(18)22-19(23)13-9-10-15(25-3)16(11-13)26-4/h9-12H,5-8H2,1-4H3,(H,22,23)
SMILES=COc1ccc(C(O)=Nc2sc3c(c2C(=O)OC(C)C)CCCC3)cc1OC
IONMODE=positive
INSTRUMENTTYPE=LC-ESI-Orbitrap
INSTRUMENT=Orbitrap
COMMENT=DB#=CCMSLIB00010105403; origin=GNPS
NUM_PEAKS=22
COMPOUND_NAME="methylethyl 2-[(3,4-dimethoxyphenyl)carbonylamino]-4,5,6,7-tetrahydrobenzo[b]t hiophene-3-carboxylate "
PRECURSOR_MZ=426.135
COLLISION_ENERGY=102040
PARENT_MASS=425.1277235480092
70.76722 0.0005238780076670448
70.844139 0.00047681196055550525
73.941231 0.0006234463018604536
92.364059 0.0005410449549417705
99.281487 0.0004434794712637463
100.283096 0.00046508121325110937
101.153473 0.00048682601313242857
165.054718 0.0023620288871082948
202.028763 0.003952403494217671
205.046249 0.004457254801988562
338.314972 0.0005104305656351764
340.097137 0.003007792220425892
366.076782 0.007403246012225442
384.087097 0.08130237617731283
385.092133 0.001025009810195078
397.986237 0.0005058527130285828
411.112701 0.0008122827218824359
423.868134 0.0010497588258494741
425.114197 0.0030135145361841337
426.134033 1.0
428.415863 0.001076367594125299
428.477356 0.0005935472020236397
END IONS

BEGIN IONS
CHARGE=1+
PRECURSORTYPE=M+Na
FORMULA=C20H20ClN3O4
ONTOLOGY=
INCHIKEY=XEMKXRIEXQJZFH-UHFFFAOYSA-N
INCHI=InChI=1S/C20H20ClN3O4/c1-12-9-18(21)24(23-12)15-7-5-14(6-8-15)22-20(25)13-10-16(26-2)19(28-4)17(11-13)27-3/h5-11H,1-4H3,(H,22,25)
SMILES=COc1cc(C(=O)Nc2ccc(-n3nc(C)cc3Cl)cc2)cc(OC)c1OC
IONMODE=positive
INSTRUMENTTYPE=LC-ESI-Orbitrap
INSTRUMENT=Orbitrap
COMMENT=DB#=CCMSLIB00010105861; origin=GNPS
NUM_PEAKS=12
COMPOUND_NAME="N-[4-(5-chloro-3-methylpyrazolyl)phenyl](3,4,5-trimethoxyphenyl)carboxamide "
PRECURSOR_MZ=424.103
COLLISION_ENERGY=102040
PARENT_MASS=423.09572354800923
65.86174 0.0017188361554547225
71.693176 0.001998249209692066
81.095802 0.0022263869959975565
92.369453 0.0020131116061940526
133.565781 0.0017262673537057156
134.699722 0.0018503683644973017
157.575027 0.0019410289831594185
166.430344 0.0022776622639294098
361.09729 0.0020056804079430592
409.074738 0.0026440203377033735
424.102844 1.0
442.113281 0.13311356803039062
END IONS

BEGIN IONS
CHARGE=1+
PRECURSORTYPE=M+Na
FORMULA=C20H15BrFN5O2S
ONTOLOGY=
INCHIKEY=VBTFCVBCINACBK-UHFFFAOYSA-N
INCHI=InChI=1S/C20H15BrFN5O2S/c1-11-2-5-13(6-3-11)27-18-17(19(29)24-10-23-18)26-20(27)30-9-16(28)25-15-7-4-12(21)8-14(15)22/h2-8,10H,9H2,1H3,(H,25,28)(H,23,24,29)
SMILES=Cc1ccc(-n2c(SCC(O)=Nc3ccc(Br)cc3F)nc3c(O)ncnc32)cc1
IONMODE=positive
INSTRUMENTTYPE=LC-ESI-Orbitrap
INSTRUMENT=Orbitrap
COMMENT=DB#=CCMSLIB00010113878; origin=GNPS
NUM_PEAKS=19
COMPOUND_NAME=N-(4-bromo-2-fluorophenyl)-2-[9-(4-methylphenyl)-6-oxohydropurin-8-ylthio]acet amide
PRECURSOR_MZ=510.001
COLLISION_ENERGY=102040
PARENT_MASS=508.9937235480092
71.795059 0.0005744779707895408
82.385094 0.0007300238674302977
86.310623 0.0005944010057294262
108.092033 0.0006404616002693448
163.142136 0.0005508993331083919
208.473465 0.002908031980675022
249.074966 0.0054395368789999145
271.063538 0.002403741582517738
272.068024 0.0014340929553976255
279.030212 0.0117690302453604
280.038391 0.017575955199857284
299.057953 0.0022746988057511406
303.222687 0.0010104085976851993
321.040955 0.0028873778251868837
379.024506 0.0006865221948092634
482.034576 0.003517603737780691
509.49118 0.02804340808919086
509.99942 1.0
510.487457 0.00584128762026476
END IONS

BEGIN IONS
CHARGE=1+
PRECURSORTYPE=M+Na
FORMULA=C22H23NO5
ONTOLOGY=
INCHIKEY=HZDFZQGZGNKKNH-UHFFFAOYSA-N
INCHI=InChI=1S/C22H23NO5/c1-3-26-19-10-9-15(13-20(19)27-4-2)11-12-23-21(24)17-14-16-7-5-6-8-18(16)28-22(17)25/h5-10,13-14H,3-4,11-12H2,1-2H3,(H,23,24)
SMILES=CCOc1ccc(CCN=C(O)c2cc3ccccc3oc2=O)cc1OCC
IONMODE=positive
INSTRUMENTTYPE=LC-ESI-Orbitrap
INSTRUMENT=Orbitrap
COMMENT=DB#=CCMSLIB00010106073; origin=GNPS
NUM_PEAKS=13
COMPOUND_NAME="N-[2-(3,4-diethoxyphenyl)ethyl](2-oxochromen-3-yl)carboxamide "
PRECURSOR_MZ=404.147
COLLISION_ENERGY=102040
PARENT_MASS=403.1397235480092
53.161652 0.0005423278346562993
78.418449 0.0005905907477475853
88.175728 0.0005493056052237141
92.366898 0.0007603831648880136
118.641129 0.0008410151803336964
141.875702 0.0006159820795345672
239.700409 0.0005741154561300781
297.857513 0.0006177265221764209
360.084076 0.003383831071275794
375.108887 0.0014017565762095626
402.054138 0.0011224519265527623
404.146118 1.0
406.25473 0.001068955685535915
END IONS

BEGIN IONS
CHARGE=1+
PRECURSORTYPE=M+Na
FORMULA=C19H20N2O4
ONTOLOGY=
INCHIKEY=KJJMCOKZMYYDII-UHFFFAOYSA-N
INCHI=InChI=1S/C19H20N2O4/c1-2-25-18(23)13-12-17(22)21-16-11-7-6-10-15(16)19(24)20-14-8-4-3-5-9-14/h3-11H,2,12-13H2,1H3,(H,20,24)(H,21,22)
SMILES=CCOC(=O)CCC(O)=Nc1ccccc1C(O)=Nc1ccccc1
IONMODE=positive
INSTRUMENTTYPE=LC-ESI-Orbitrap
INSTRUMENT=Orbitrap
COMMENT=DB#=CCMSLIB00010105620; origin=GNPS
NUM_PEAKS=15
COMPOUND_NAME=ethyl 3-{N-[2-(N-phenylcarbamoyl)phenyl]carbamoyl}propanoate
PRECURSOR_MZ=363.132
COLLISION_ENERGY=102040
PARENT_MASS=362.12472354800923
61.995159 0.0005339887467906216
70.641373 0.0005343812412755835
79.292313 0.0005351662302455072
81.761848 0.0005475298065218061
90.97657 0.004295852137907647
158.963516 0.004466390991623579
226.083466 0.0008523017740946967
226.950974 0.0034268693482020713
235.083466 0.0008870375360138221
270.072205 0.0014110176734379162
335.099884 0.0013095578490752732
345.121307 0.0024309145926113304
361.347687 0.0009598452629742487
363.13028 1.0
364.929504 0.0007522156804294204
END IONS

BEGIN IONS
CHARGE=1+
PRECURSORTYPE=M+Na
FORMULA=C20H18O6
ONTOLOGY=
INCHIKEY=ACNCWTVOJNBNEN-UHFFFAOYSA-N
INCHI=InChI=1S/C20H18O6/c1-3-13-4-6-14(7-5-13)26-18-11-25-17-10-15(24-12-19(21)23-2)8-9-16(17)20(18)22/h4-11H,3,12H2,1-2H3
SMILES=CCc1ccc(Oc2coc3cc(OCC(=O)OC)ccc3c2=O)cc1
IONMODE=positive
INSTRUMENTTYPE=LC-ESI-Orbitrap
INSTRUMENT=Orbitrap
COMMENT=DB#=CCMSLIB00010110176; origin=GNPS
NUM_PEAKS=8
COMPOUND_NAME=methyl 2-[3-(4-ethylphenoxy)-4-oxochromen-7-yloxy]acetate
PRECURSOR_MZ=377.1
COLLISION_ENERGY=102040
PARENT_MASS=376.09272354800925
54.645168 0.0008863805938749979
71.521492 0.000851037570195172
148.889999 0.000752862504417878
177.588608 0.000621588416464239
213.712387 0.0008030720380582655
262.682861 0.0007523015040420077
377.098969 1.0
395.111237 0.0017845421956432712
END IONS

BEGIN IONS
CHARGE=1+
PRECURSORTYPE=M+Na
FORMULA=C17H19NO5
ONTOLOGY=
INCHIKEY=VABYUUZNAVQNPG-UHFFFAOYSA-N
INCHI=InChI=1S/C17H19NO5/c1-21-13-10-12(11-14(22-2)17(13)23-3)7-8-16(20)18-9-5-4-6-15(18)19/h4,6-8,10-11H,5,9H2,1-3H3/b8-7+
SMILES=COc1cc(C=CC(=O)N2CCC=CC2=O)cc(OC)c1OC
IONMODE=positive
INSTRUMENTTYPE=LC-ESI-Orbitrap
INSTRUMENT=Orbitrap
COMMENT=DB#=CCMSLIB00010106257; origin=GNPS
NUM_PEAKS=16
COMPOUND_NAME=Piperlongumine
PRECURSOR_MZ=340.116
COLLISION_ENERGY=102040
PARENT_MASS=339.1087235480092
53.126019 0.0003210373974212032
57.57983 0.00028782663217073387
60.52676 0.0002849636351663831
64.895027 0.00035138516566732167
79.529709 0.00031158950730684554
97.229713 0.00031512053694554484
120.042053 0.003850349237917914
136.191177 0.0002911667953424765
215.111023 0.00036999464619560186
221.080246 0.0006138265577328118
243.064194 0.0003557750944073262
325.091309 0.0028090772274355275
338.498169 0.0005959805430723584
340.115021 1.0
341.74057 0.0006557217472298118
358.125397 0.0017392706801431118
END IONS

BEGIN IONS
CHARGE=1+
PRECURSORTYPE=M+Na
FORMULA=C22H20ClN3O3
ONTOLOGY=
INCHIKEY=SFZFYNRNHREGAY-UHFFFAOYSA-N
INCHI=InChI=1S/C22H20ClN3O3/c23-15-6-5-7-16(12-15)24-20(27)14-26-19-9-2-1-8-17(19)18(13-21(26)28)22(29)25-10-3-4-11-25/h1-2,5-9,12-13H,3-4,10-11,14H2,(H,24,27)
SMILES=O=C(c1cc(=O)n(CC(O)=Nc2cccc(Cl)c2)c2ccccc12)N1CCCC1
IONMODE=positive
INSTRUMENTTYPE=LC-ESI-Orbitrap
INSTRUMENT=Orbitrap
COMMENT=DB#=CCMSLIB00010113682; origin=GNPS
NUM_PEAKS=13
COMPOUND_NAME=N-(3-chlorophenyl)-2-[2-oxo-4-(pyrrolidinylcarbonyl)hydroquinolyl]acetamide
PRECURSOR_MZ=432.109
COLLISION_ENERGY=102040
PARENT_MASS=431.1017235480092
78.541229 0.0005901515963953874
82.401512 0.0007449138757547872
157.967392 0.0005764520308642649
165.078964 0.0005940045992010156
169.850525 0.0006222599531089558
399.431122 0.0007504793242518057
414.093933 0.0008988199322684918
432.107513 1.0
432.159119 0.047614338393396294
473.134827 0.0029147966224577406
502.527191 0.0007070260148327764
733.146667 0.0007648210569171996
887.435608 0.0007008183992014866
END IONS

BEGIN IONS
CHARGE=1+
PRECURSORTYPE=M+Na
FORMULA=C15H15N5O2S
ONTOLOGY=
INCHIKEY=XLJQMEUZSPZIKG-UHFFFAOYSA-N
INCHI=InChI=1S/C15H15N5O2S/c1-22-11-4-2-10(3-5-11)6-16-12(21)7-23-15-13-14(18-8-17-13)19-9-20-15/h2-5,8-9H,6-7H2,1H3,(H,16,21)(H,17,18,19,20)
SMILES=COc1ccc(CN=C(O)CSc2ncnc3[nH]cnc23)cc1
IONMODE=positive
INSTRUMENTTYPE=LC-ESI-Orbitrap
INSTRUMENT=Orbitrap
COMMENT=DB#=CCMSLIB00010110215; origin=GNPS
NUM_PEAKS=13
COMPOUND_NAME=N-[(4-methoxyphenyl)methyl]-2-purin-6-ylthioacetamide
PRECURSOR_MZ=352.084
COLLISION_ENERGY=102040
PARENT_MASS=351.0767235480092
73.957603 0.0006638405303021665
112.930313 0.0006288748840496096
119.153267 0.000635209240254783
120.009789 0.0007755785737614243
121.064323 0.0008830092550011642
143.032806 0.0012187301338753515
180.383469 0.0006663742727842359
189.019958 0.004908619310512928
214.999557 0.009909720221621388
350.335724 0.0007228767301343821
352.083221 1.0
353.79599 0.0015204988634898097
366.245605 0.0007900209059092196
END IONS

BEGIN IONS
CHARGE=1+
PRECURSORTYPE=M+Na
FORMULA=C17H14N2O3
ONTOLOGY=
INCHIKEY=XBIGUQRVKDBRJP-UHFFFAOYSA-N
INCHI=InChI=1S/C17H14N2O3/c1-21-13-8-6-12(7-9-13)19-17(20)14-10-11-4-2-3-5-15(11)22-16(14)18/h2-10,18H,1H3,(H,19,20)
SMILES=COc1ccc(NC(=O)c2cc3ccccc3oc2=N)cc1
IONMODE=positive
INSTRUMENTTYPE=LC-ESI-Orbitrap
INSTRUMENT=Orbitrap
COMMENT=DB#=CCMSLIB00010104527; origin=GNPS
NUM_PEAKS=26
COMPOUND_NAME=(2-iminochromen-3-yl)-N-(4-methoxyphenyl)carboxamide
PRECURSOR_MZ=317.09
COLLISION_ENERGY=102040
PARENT_MASS=316.0827235480092
59.523861 0.0007220291824802543
83.48349 0.0008248709269326769
87.833313 0.000752481023694738
92.421783 0.0008553227681471604
118.064903 0.00141921607344343
119.068237 0.0012926005231305776
164.070694 0.0010436433651314664
164.963562 0.0007385907101583068
165.073273 0.002806644698601566
194.104156 0.003997204841522208
200.44162 0.0006822280917700961
207.09903 0.0031012796184224025
209.115707 0.001285655366362362
213.887299 0.000754617995008035
232.115616 0.001636385783157247
233.117935 0.005529680394570384
235.093643 0.0012869909734331726
253.104874 0.0016377213902280575
281.099243 0.003953664051013779
290.797516 0.0007150840257120389
299.07666 0.0008876444592607789
299.110748 0.005586844377201081
300.123016 0.004037005932232366
317.088928 1.0
335.097992 0.0008969937087564536
358.114471 0.005910061288337265
END IONS

BEGIN IONS
CHARGE=1+
PRECURSORTYPE=M+Na
FORMULA=C22H21N5O4S
ONTOLOGY=
INCHIKEY=FXOQXDOECXRMKB-UHFFFAOYSA-N
INCHI=InChI=1S/C22H21N5O4S/c1-13-4-7-15(8-5-13)27-20-19(21(29)24-12-23-20)26-22(27)32-11-18(28)25-14-6-9-16(30-2)17(10-14)31-3/h4-10,12H,11H2,1-3H3,(H,25,28)(H,23,24,29)
SMILES=COc1ccc(N=C(O)CSc2nc3c(O)ncnc3n2-c2ccc(C)cc2)cc1OC
IONMODE=positive
INSTRUMENTTYPE=LC-ESI-Orbitrap
INSTRUMENT=Orbitrap
COMMENT=DB#=CCMSLIB00010113118; origin=GNPS
NUM_PEAKS=17
COMPOUND_NAME="N-(3,4-dimethoxyphenyl)-2-[9-(4-methylphenyl)-6-oxohydropurin-8-ylthio]acetami de "
PRECURSOR_MZ=474.121
COLLISION_ENERGY=102040
PARENT_MASS=473.1137235480092
59.601688 0.0005509489381907944
92.369987 0.0009884214231780845
104.275261 0.0005632306884612956
166.972076 0.0005379752583275889
246.883408 0.0006165092670995263
249.07399 0.008162347440336209
279.030731 0.023984874419103484
280.038422 0.0336582231075077
281.046356 0.00931302635300345
289.068512 0.0028593990418504965
293.046448 0.0022268024117205955
294.057678 0.0006784369656465607
321.040741 0.014666139646960223
430.095398 0.0041033154671346415
458.088959 0.017002439916726272
459.098602 0.0024779728538722543
474.119995 1.0
END IONS

BEGIN IONS
CHARGE=1+
PRECURSORTYPE=M+Na
FORMULA=C20H17N3O2S
ONTOLOGY=
INCHIKEY=PJDSKMDZRFBUMU-UHFFFAOYSA-N
INCHI=InChI=1S/C20H17N3O2S/c1-12-18(14-8-4-6-10-16(14)23(12)2)17(24)11-26-20-21-15-9-5-3-7-13(15)19(25)22-20/h3-10H,11H2,1-2H3,(H,21,22,25)
SMILES=Cc1c(C(=O)CSc2nc(O)c3ccccc3n2)c2ccccc2n1C
IONMODE=positive
INSTRUMENTTYPE=LC-ESI-Orbitrap
INSTRUMENT=Orbitrap
COMMENT=DB#=CCMSLIB00010109453; origin=GNPS
NUM_PEAKS=20
COMPOUND_NAME="1-(1,2-dimethylindol-3-yl)-2-(4-hydroxyquinazolin-2-ylthio)ethan-1-one "
PRECURSOR_MZ=386.093
COLLISION_ENERGY=102040
PARENT_MASS=385.08572354800924
64.202927 0.001037410543690857
66.307564 0.001045550643859312
82.385429 0.00119071576353009
101.369293 0.0011473018959649976
101.847458 0.0011278561011181332
107.048691 0.0013991927733999615
118.639709 0.001052786288453494
119.379547 0.0011274038733309968
144.080978 0.001371154650597506
172.075592 0.05638918723360957
172.091858 0.0019314648788594814
181.056473 0.0011599642740048163
186.092239 0.0021141649048625794
213.008987 0.012781313947835524
241.003769 0.07977931283987745
298.73587 0.0012124226973126363
302.367584 0.001225085075352455
328.494232 0.0012187538863325457
335.165131 0.0012318684921595008
386.092743 1.0
END IONS

BEGIN IONS
CHARGE=1+
PRECURSORTYPE=M+Na
FORMULA=C14H12FN5O2S
ONTOLOGY=
INCHIKEY=CIULIPSVONXXPV-UHFFFAOYSA-N
INCHI=InChI=1S/C14H12FN5O2S/c1-20-12-11(13(22)17-7-16-12)19-14(20)23-6-10(21)18-9-5-3-2-4-8(9)15/h2-5,7H,6H2,1H3,(H,18,21)(H,16,17,22)
SMILES=Cn1c(SCC(O)=Nc2ccccc2F)nc2c(O)ncnc21
IONMODE=positive
INSTRUMENTTYPE=LC-ESI-Orbitrap
INSTRUMENT=Orbitrap
COMMENT=DB#=CCMSLIB00010110124; origin=GNPS
NUM_PEAKS=14
COMPOUND_NAME=N-(2-fluorophenyl)-2-(9-methyl-6-oxohydropurin-8-ylthio)acetamide
PRECURSOR_MZ=356.059
COLLISION_ENERGY=102040
PARENT_MASS=355.05172354800925
54.539478 0.00036611267531022433
54.847481 0.0003892384116867791
108.051643 0.0004178766782461173
157.998886 0.0004759599230988594
173.042999 0.002923119968387656
185.416763 0.0004812035493702875
204.007309 0.02124219892946664
206.003937 0.0006542432163274153
217.015778 0.0008045605027750211
245.009796 0.005428766614396228
262.338654 0.0004254059877640653
274.806824 0.00038023013065637695
355.544098 0.0005317574847050816
356.058014 1.0
END IONS

BEGIN IONS
CHARGE=1+
PRECURSORTYPE=M+Na
FORMULA=C18H16O5
ONTOLOGY=
INCHIKEY=GGMKKMHAXFYCRV-UHFFFAOYSA-N
INCHI=InChI=1S/C18H16O5/c1-20-15-7-4-12(9-17(15)21-2)3-6-14(19)13-5-8-16-18(10-13)23-11-22-16/h3-10H,11H2,1-2H3/b6-3+
SMILES=COc1ccc(C=CC(=O)c2ccc3c(c2)OCO3)cc1OC
IONMODE=positive
INSTRUMENTTYPE=LC-ESI-Orbitrap
INSTRUMENT=Orbitrap
COMMENT=DB#=CCMSLIB00010108673; origin=GNPS
NUM_PEAKS=11
COMPOUND_NAME="(2E)-1-(2H-benzo[3,4-d]1,3-dioxolan-5-yl)-3-(3,4-dimethoxyphenyl)prop-2-en-1-o ne "
PRECURSOR_MZ=335.089
COLLISION_ENERGY=102040
PARENT_MASS=334.0817235480092
60.514771 0.005058890021497129
69.63208 0.005740137056810956
74.505127 0.005371759030307924
118.640503 0.005997497047929514
148.19455 0.006560156636355379
335.088226 1.0
335.125366 0.04206826599921278
335.181763 0.03897994610579009
335.218781 0.24243311163368086
339.571655 0.005596318238244704
353.099213 0.01043569532614071
END IONS

BEGIN IONS
CHARGE=1+
PRECURSORTYPE=M+Na
FORMULA=C4H7N3O
ONTOLOGY=
INCHIKEY=DDRJAANPRJIHGJ-UHFFFAOYSA-N
INCHI=InChI=1S/C4H7N3O/c1-7-2-3(8)6-4(7)5/h2H2,1H3,(H2,5,6,8)
SMILES=CN1CC(O)=NC1=N
IONMODE=positive
INSTRUMENTTYPE=LC-ESI-Orbitrap
INSTRUMENT=Orbitrap
COMMENT=DB#=CCMSLIB00010103315; origin=GNPS
NUM_PEAKS=10
COMPOUND_NAME=creatinine
PRECURSOR_MZ=136.048
COLLISION_ENERGY=102040
PARENT_MASS=135.04072354800925
64.3386 0.02832466621578286
66.758598 0.036974160246997526
75.070396 0.031422742880496506
91.576599 0.02873190691298907
92.400703 0.04048213127952144
117.406998 0.032824099859912574
136.022003 0.052006916101856336
136.048004 1.0
136.112 0.043667491805729354
136.244995 0.037938617583021694
END IONS

BEGIN IONS
CHARGE=1+
PRECURSORTYPE=M+Na
FORMULA=C26H22N2O4
ONTOLOGY=
INCHIKEY=LVKMUWHJXWDZBZ-UHFFFAOYSA-N
INCHI=InChI=1S/C26H22N2O4/c29-23(22-16-20-8-4-5-9-24(20)32-26(22)31)14-15-27-21-12-10-19(11-13-21)25(30)28-17-18-6-2-1-3-7-18/h1-13,16,27H,14-15,17H2,(H,28,30)
SMILES=O=C(NCc1ccccc1)c1ccc(NCCC(=O)c2cc3ccccc3oc2=O)cc1
IONMODE=positive
INSTRUMENTTYPE=LC-ESI-Orbitrap
INSTRUMENT=Orbitrap
COMMENT=DB#=CCMSLIB00010106456; origin=GNPS
NUM_PEAKS=12
COMPOUND_NAME=(4-{[3-oxo-3-(2-oxochromen-3-yl)propyl]amino}phenyl)-N-benzylcarboxamide
PRECURSOR_MZ=449.147
COLLISION_ENERGY=102040
PARENT_MASS=448.1397235480092
68.747482 0.0019152980861312408
71.943962 0.001995499208311695
72.877312 0.0021074631511576753
83.049049 0.004891474382491063
108.204643 0.0020701418368756818
211.035919 0.007808095390103023
261.099762 0.015080193181475288
275.114716 0.007607195549393569
297.216431 0.0021019046575412085
337.023468 0.010152191555218869
393.086304 0.030980661206637793
449.146454 1.0
END IONS

BEGIN IONS
CHARGE=1+
PRECURSORTYPE=M+Na
FORMULA=C15H10O5
ONTOLOGY=
INCHIKEY=BYVNWEGWXASECK-UHFFFAOYSA-N
INCHI=InChI=1S/C15H10O5/c16-9-2-4-14-10(6-9)12(18)7-15(20-14)8-1-3-11(17)13(19)5-8/h1-7,16-17,19H
SMILES=O=c1cc(-c2ccc(O)c(O)c2)oc2ccc(O)cc12
IONMODE=positive
INSTRUMENTTYPE=LC-ESI-Orbitrap
INSTRUMENT=Orbitrap
COMMENT=DB#=CCMSLIB00010108209; origin=GNPS
NUM_PEAKS=21
COMPOUND_NAME="6,3',4'-Trihydroxyflavone "
PRECURSOR_MZ=293.042
COLLISION_ENERGY=102040
PARENT_MASS=292.0347235480092
51.416 0.009096976738437198
60.297352 0.011949669987392776
82.397217 0.012112822287593009
84.959969 0.013521864880231379
85.274437 0.00944305737522557
94.723068 0.01327960843447952
104.280144 0.013259832398091613
110.898933 0.00979408202111092
158.927063 0.013378488616419054
176.938019 0.01497540355474254
199.011276 0.010743331767730452
204.933304 0.02269300175512323
214.918015 0.015504412528119052
222.943359 0.014827083281833239
232.903946 0.014772699181766494
232.92807 0.2243344127753195
250.937775 0.21946456381479743
281.071899 0.01033792302177836
293.041748 1.0
293.137421 0.1127728475020394
311.052094 0.07133710726027735
END IONS

BEGIN IONS
CHARGE=1+
PRECURSORTYPE=M+Na
FORMULA=C9H13N3O4
ONTOLOGY=
INCHIKEY=CKTSBUTUHBMZGZ-SHYZEUOFSA-N
INCHI=InChI=1S/C9H13N3O4/c10-7-1-2-12(9(15)11-7)8-3-5(14)6(4-13)16-8/h1-2,5-6,8,13-14H,3-4H2,(H2,10,11,15)/t5-,6+,8+/m0/s1
SMILES=N=c1ccn([C@H]2C[C@H](O)[C@@H](CO)O2)c(O)n1
IONMODE=positive
INSTRUMENTTYPE=LC-ESI-Orbitrap
INSTRUMENT=Orbitrap
COMMENT=DB#=CCMSLIB00010103331; origin=GNPS
NUM_PEAKS=15
COMPOUND_NAME=2'-deoxycytidine
PRECURSOR_MZ=250.08
COLLISION_ENERGY=102040
PARENT_MASS=249.07272354800926
54.458302 0.001435360606255218
56.614101 0.0014532068984255742
66.756699 0.002066279523571926
72.232201 0.0013420782464196263
82.4161 0.001931450453382274
95.806999 0.0014679778988800681
104.308998 0.0019424917369814695
134.033005 1.0
139.035995 0.007840623155224455
152.042999 0.0016097108770989463
183.979996 0.0025261828918897557
208.975998 0.0036169431844454434
211.093994 0.001830473833877573
226.985992 0.0023804359211897857
250.080002 0.2712624059518928
END IONS

BEGIN IONS
CHARGE=1+
PRECURSORTYPE=M+Na
FORMULA=C9H13N3O4
ONTOLOGY=
INCHIKEY=CKTSBUTUHBMZGZ-SHYZEUOFSA-N
INCHI=InChI=1S/C9H13N3O4/c10-7-1-2-12(9(15)11-7)8-3-5(14)6(4-13)16-8/h1-2,5-6,8,13-14H,3-4H2,(H2,10,11,15)/t5-,6+,8+/m0/s1
SMILES=N=c1ccn([C@H]2C[C@H](O)[C@@H](CO)O2)c(O)n1
IONMODE=positive
INSTRUMENTTYPE=LC-ESI-Orbitrap
INSTRUMENT=Orbitrap
COMMENT=DB#=CCMSLIB00010126947; origin=GNPS
NUM_PEAKS=15
COMPOUND_NAME=2'-deoxycytidine
PRECURSOR_MZ=250.08
COLLISION_ENERGY=102040
PARENT_MASS=249.07272354800926
54.458302 0.001435360606255218
56.614101 0.0014532068984255742
66.756699 0.002066279523571926
72.232201 0.0013420782464196263
82.4161 0.001931450453382274
95.806999 0.0014679778988800681
104.308998 0.0019424917369814695
134.033005 1.0
139.035995 0.007840623155224455
152.042999 0.0016097108770989463
183.979996 0.0025261828918897557
208.975998 0.0036169431844454434
211.093994 0.001830473833877573
226.985992 0.0023804359211897857
250.080002 0.2712624059518928
END IONS

BEGIN IONS
CHARGE=1+
PRECURSORTYPE=M+Na
FORMULA=C29H34N2O4
ONTOLOGY=
INCHIKEY=LIEPOPJIKJBLKK-UHFFFAOYSA-N
INCHI=InChI=1S/C29H34N2O4/c1-2-35-26-18-21(13-14-25(26)32)28-23-11-5-6-15-29(23,34)16-17-31(28)19-27(33)30-24-12-7-9-20-8-3-4-10-22(20)24/h3-4,7-10,12-14,18,23,28,32,34H,2,5-6,11,15-17,19H2,1H3,(H,30,33)
SMILES=CCOc1cc(C2C3CCCCC3(O)CCN2CC(O)=Nc2cccc3ccccc23)ccc1O
IONMODE=positive
INSTRUMENTTYPE=LC-ESI-Orbitrap
INSTRUMENT=Orbitrap
COMMENT=DB#=CCMSLIB00010107242; origin=GNPS
NUM_PEAKS=9
COMPOUND_NAME=2-[2-(3-ethoxy-4-hydroxyphenyl)-6-hydroxy-3-azabicyclo[4.4.0]dec-3-yl]-N-napht hylacetamide
PRECURSOR_MZ=497.241
COLLISION_ENERGY=102040
PARENT_MASS=496.2337235480092
72.951042 0.0015924628103811738
82.670227 0.0010503395188392716
103.38858 0.001226110621991966
226.136841 0.001208962221684386
249.097855 0.0022444917584398386
445.97113 0.0010799594830069096
460.92038 0.0011976598669362084
479.228333 0.00809560389066024
497.240417 1.0
END IONS

BEGIN IONS
CHARGE=1+
PRECURSORTYPE=M+Na
FORMULA=C21H13ClO3
ONTOLOGY=
INCHIKEY=WTBGPHMPZFMGIZ-UHFFFAOYSA-N
INCHI=InChI=1S/C21H13ClO3/c22-15-8-4-7-14(11-15)20-19(13-5-2-1-3-6-13)17-10-9-16(23)12-18(17)25-21(20)24/h1-12,23H
SMILES=O=c1oc2cc(O)ccc2c(-c2ccccc2)c1-c1cccc(Cl)c1
IONMODE=positive
INSTRUMENTTYPE=LC-ESI-Orbitrap
INSTRUMENT=Orbitrap
COMMENT=DB#=CCMSLIB00010109542; origin=GNPS
NUM_PEAKS=12
COMPOUND_NAME=3-(3-chlorophenyl)-7-hydroxy-4-phenylchromen-2-one
PRECURSOR_MZ=371.045
COLLISION_ENERGY=102040
PARENT_MASS=370.03772354800924
66.742737 0.00336361250271029
68.042747 0.003379303655182645
71.363113 0.002874333839254128
91.089073 0.0034349359230391764
124.192207 0.003500553469741752
128.636154 0.003463465291170731
150.671448 0.003102568784306565
210.702042 0.003788700087870454
298.076843 0.0036517591208389917
300.94278 0.003553332800785128
371.043915 1.0
389.054993 0.01449719841604948
END IONS

BEGIN IONS
CHARGE=1+
PRECURSORTYPE=M+Na
FORMULA=C13H15ClN2O
ONTOLOGY=
INCHIKEY=ORWWIGSFLHONFB-UHFFFAOYSA-N
INCHI=InChI=1S/C13H15ClN2O/c1-2-13(17)15-6-5-9-8-16-12-4-3-10(14)7-11(9)12/h3-4,7-8,16H,2,5-6H2,1H3,(H,15,17)
SMILES=CCC(O)=NCCc1c[nH]c2ccc(Cl)cc12
IONMODE=positive
INSTRUMENTTYPE=LC-ESI-Orbitrap
INSTRUMENT=Orbitrap
COMMENT=DB#=CCMSLIB00010104727; origin=GNPS
NUM_PEAKS=8
COMPOUND_NAME=N-[2-(5-chloroindol-3-yl)ethyl]propanamide
PRECURSOR_MZ=273.076
COLLISION_ENERGY=102040
PARENT_MASS=272.06872354800925
73.963333 0.0014064158831963401
80.583878 0.0013522387732988934
104.302322 0.0014852189521380806
119.430817 0.0012542821806560355
234.070587 0.0013675615922597874
235.705002 0.0016751124585463024
238.448883 0.0022070331739030506
273.075775 1.0
END IONS

BEGIN IONS
CHARGE=1+
PRECURSORTYPE=M+Na
FORMULA=C17H20N2O
ONTOLOGY=
INCHIKEY=VMQLWVGHPWFHEI-UHFFFAOYSA-N
INCHI=InChI=1S/C17H20N2O/c20-17(18-13-11-15-7-3-1-4-8-15)19-14-12-16-9-5-2-6-10-16/h1-10H,11-14H2,(H2,18,19,20)
SMILES=OC(=NCCc1ccccc1)NCCc1ccccc1
IONMODE=positive
INSTRUMENTTYPE=LC-ESI-Orbitrap
INSTRUMENT=Orbitrap
COMMENT=DB#=CCMSLIB00010103799; origin=GNPS
NUM_PEAKS=14
COMPOUND_NAME=Untitled
PRECURSOR_MZ=291.147
COLLISION_ENERGY=102040
PARENT_MASS=290.1397235480092
63.489601 0.00026055335199136033
67.546661 0.00028758371084930065
70.702141 0.0002873906368574582
73.964523 0.00029704433644957973
74.926987 0.0003012919642701132
80.598083 0.00027870230722454884
92.360573 0.000340196373626363
144.077957 0.0016315717680644613
215.518616 0.0002835291570206096
249.202377 0.00035660766293296964
266.924835 0.0003456024453979511
289.860535 0.0004098960846814805
291.146545 1.0
303.388092 0.0003965739792443528
END IONS

BEGIN IONS
CHARGE=1+
PRECURSORTYPE=M+Na
FORMULA=C17H14O4
ONTOLOGY=
INCHIKEY=PJJFYUAXYSKODT-UHFFFAOYSA-N
INCHI=InChI=1S/C17H14O4/c1-19-11-7-8-16-13(9-11)14(18)10-17(21-16)12-5-3-4-6-15(12)20-2/h3-10H,1-2H3
SMILES=COc1ccc2oc(-c3ccccc3OC)cc(=O)c2c1
IONMODE=positive
INSTRUMENTTYPE=LC-ESI-Orbitrap
INSTRUMENT=Orbitrap
COMMENT=DB#=CCMSLIB00010103445; origin=GNPS
NUM_PEAKS=12
COMPOUND_NAME="6,2'-dimethoxyflavone "
PRECURSOR_MZ=305.078
COLLISION_ENERGY=102040
PARENT_MASS=304.0707235480092
54.025532 0.0010806873665462685
71.516006 0.00132569381695834
73.382469 0.001127219599376468
86.27076 0.0012155358780133775
90.977158 0.0012991039696267973
118.6474 0.001206039503966398
204.817734 0.001634800792187523
219.721893 0.0014643408780442408
303.703491 0.00128390977115163
305.078278 1.0
305.209137 0.01516096116600279
323.088715 0.041046652361961894
END IONS

BEGIN IONS
CHARGE=1+
PRECURSORTYPE=M+Na
FORMULA=C18H27NO3
ONTOLOGY=
INCHIKEY=YKPUWZUDDOIDPM-UHFFFAOYSA-N
INCHI=InChI=1S/C18H27NO3/c1-14(2)8-6-4-5-7-9-18(21)19-13-15-10-11-16(20)17(12-15)22-3/h6,8,10-12,14,20H,4-5,7,9,13H2,1-3H3,(H,19,21)/b8-6+
SMILES=COc1cc(CN=C(O)CCCCC=CC(C)C)ccc1O
IONMODE=positive
INSTRUMENTTYPE=LC-ESI-Orbitrap
INSTRUMENT=Orbitrap
COMMENT=DB#=CCMSLIB00010104713; origin=GNPS
NUM_PEAKS=11
COMPOUND_NAME=Capsaicin
PRECURSOR_MZ=328.188
COLLISION_ENERGY=102040
PARENT_MASS=327.1807235480092
51.746399 0.0003677705221642075
66.732536 0.0003669477693182025
66.737831 0.0004702032514918223
98.984138 0.003434993132070618
104.278313 0.00044785179917535483
118.648216 0.0004889894414756017
174.992172 0.0015635046583580513
175.995071 0.0005003708558453367
326.654999 0.000976607628207862
328.187775 1.0
329.732727 0.0008045151579184957
END IONS

BEGIN IONS
CHARGE=1+
PRECURSORTYPE=M+Na
FORMULA=C18H27NO3
ONTOLOGY=
INCHIKEY=YKPUWZUDDOIDPM-UHFFFAOYSA-N
INCHI=InChI=1S/C18H27NO3/c1-14(2)8-6-4-5-7-9-18(21)19-13-15-10-11-16(20)17(12-15)22-3/h6,8,10-12,14,20H,4-5,7,9,13H2,1-3H3,(H,19,21)/b8-6+
SMILES=COc1cc(CN=C(O)CCCCC=CC(C)C)ccc1O
IONMODE=positive
INSTRUMENTTYPE=LC-ESI-Orbitrap
INSTRUMENT=Orbitrap
COMMENT=DB#=CCMSLIB00010104714; origin=GNPS
NUM_PEAKS=13
COMPOUND_NAME=Capsaicin
PRECURSOR_MZ=328.188
COLLISION_ENERGY=102040
PARENT_MASS=327.1807235480092
52.518589 0.000586154262710175
62.76873 0.0005126193189474047
67.616287 0.000541310698739237
74.39785 0.0007268482880597529
88.183502 0.0006020939181500818
92.368591 0.0006605393214297404
98.983871 0.0023951988907700045
117.103363 0.0005925301248861377
118.645531 0.0006159082861980011
130.02037 0.0005838164465789887
143.417343 0.0006414117349018521
266.846375 0.000671378287128877
328.187714 1.0
END IONS

BEGIN IONS
CHARGE=1+
PRECURSORTYPE=M+Na
FORMULA=C19H19N5O2S
ONTOLOGY=
INCHIKEY=JDLXWYZXYPEFMD-UHFFFAOYSA-N
INCHI=InChI=1S/C19H19N5O2S/c1-4-24-16-15(17(25)21-10-20-16)23-19(24)27-9-14-12(3)26-18(22-14)13-7-5-6-11(2)8-13/h5-8,10H,4,9H2,1-3H3,(H,20,21,25)
SMILES=CCn1c(SCc2nc(-c3cccc(C)c3)oc2C)nc2c(O)ncnc21
IONMODE=positive
INSTRUMENTTYPE=LC-ESI-Orbitrap
INSTRUMENT=Orbitrap
COMMENT=DB#=CCMSLIB00010105271; origin=GNPS
NUM_PEAKS=12
COMPOUND_NAME="9-ethyl-8-{[5-methyl-2-(3-methylphenyl)(1,3-oxazol-4-yl)]methylthio}hydropurin -6-one "
PRECURSOR_MZ=404.115
COLLISION_ENERGY=102040
PARENT_MASS=403.10772354800923
82.390327 0.0010348066293978295
118.064941 0.025498109305597354
120.193672 0.0010829922816064307
186.091141 0.16358515471149038
194.590073 0.0013717112304956723
212.435944 0.001245717598901051
218.023071 0.03535405000406813
219.030884 0.1049890318396571
262.430542 0.0010818073885193338
286.567505 0.0013108867186913725
329.156342 0.0011734391205881494
404.11441 1.0
END IONS

BEGIN IONS
CHARGE=1+
PRECURSORTYPE=M+Na
FORMULA=C22H25N3O6
ONTOLOGY=
INCHIKEY=SRNHKDNMPLHNHG-UHFFFAOYSA-N
INCHI=InChI=1S/C22H25N3O6/c1-22(2)8-11-16(12(26)9-22)15(17-19(23-11)24-21(28)25-20(17)27)10-6-13(29-3)18(31-5)14(7-10)30-4/h6-7,15H,8-9H2,1-5H3,(H3,23,24,25,27,28)
SMILES=COc1cc(C2C3=C(CC(C)(C)CC3=O)Nc3nc(O)nc(O)c32)cc(OC)c1OC
IONMODE=positive
INSTRUMENTTYPE=LC-ESI-Orbitrap
INSTRUMENT=Orbitrap
COMMENT=DB#=CCMSLIB00010110711; origin=GNPS
NUM_PEAKS=11
COMPOUND_NAME="8,8-dimethyl-5-(3,4,5-trimethoxyphenyl)-1,3,5,7,8,9,10-heptahydropyrimidino[4, 5-b]quinoline-2,4,6-trione "
PRECURSOR_MZ=450.164
COLLISION_ENERGY=102040
PARENT_MASS=449.1567235480092
82.398422 0.0005809061960090509
92.375313 0.0006419984585680574
136.20993 0.0006397030845412739
170.649994 0.0006254011386820845
175.540146 0.0006026239656470792
260.103333 0.0009283905102175044
282.084747 0.017618231626193043
435.137115 0.002429741690966732
449.651825 0.0024869494744034896
450.163605 1.0
468.174133 0.0309766021931416
END IONS

BEGIN IONS
CHARGE=1+
PRECURSORTYPE=M+Na
FORMULA=C25H36O5
ONTOLOGY=
INCHIKEY=BYOXXAISBYDIEU-UHFFFAOYSA-N
INCHI=InChI=1S/C25H36O5/c1-14(28-15(2)26)25-22(30-25)13-21-19-7-6-17-12-18(29-16(3)27)8-10-23(17,4)20(19)9-11-24(21,25)5/h6,14,18-22H,7-13H2,1-5H3/t14-,18?,19?,20?,21?,22?,23?,24?,25?/m0/s1
SMILES=CC(=O)OC1CCC2(C)C(=CCC3C2CCC2(C)C3CC3OC32C(C)OC(C)=O)C1
IONMODE=positive
INSTRUMENTTYPE=LC-ESI-Orbitrap
INSTRUMENT=Orbitrap
COMMENT=DB#=CCMSLIB00010113965; origin=GNPS
NUM_PEAKS=18
COMPOUND_NAME="1-((6R)-14-acetyloxy-7,11-dimethyl-5-oxapentacyclo[8.8.0.0<2,7>.0<4,6>.0<11,16 >]octadec-16-en-6-yl)(1S)ethyl acetate "
PRECURSOR_MZ=439.245
COLLISION_ENERGY=102040
PARENT_MASS=438.2377235480092
57.08305 0.0031100621740219295
82.394272 0.00419075773908688
92.374382 0.004717494746240704
104.283333 0.005180261109114864
130.064407 0.003557856683979573
131.669693 0.0034312764729581115
147.116959 0.007398817495835102
147.316574 0.003541523753525191
160.695709 0.003534718365835865
165.517532 0.004046483520073171
185.391953 0.004026067357005194
207.863037 0.0036095776304184497
279.210144 0.00695374514095319
311.209778 0.005540946656649136
379.224487 0.03096723614150851
398.268158 0.005354479033961607
439.244965 1.0
458.738617 0.0034339986280338417
END IONS

BEGIN IONS
CHARGE=1+
PRECURSORTYPE=M+Na
FORMULA=C12H13NO
ONTOLOGY=
INCHIKEY=QRSYDKNRNVBMFQ-UHFFFAOYSA-N
INCHI=InChI=1S/C12H13NO/c1-7-4-5-10-8(2)6-11(14)13-12(10)9(7)3/h4-6H,1-3H3,(H,13,14)
SMILES=Cc1ccc2c(C)cc(O)nc2c1C
IONMODE=positive
INSTRUMENTTYPE=LC-ESI-Orbitrap
INSTRUMENT=Orbitrap
COMMENT=DB#=CCMSLIB00010104112; origin=GNPS
NUM_PEAKS=12
COMPOUND_NAME="4,7,8-trimethylhydroquinolin-2-one "
PRECURSOR_MZ=210.089
COLLISION_ENERGY=102040
PARENT_MASS=209.08172354800925
64.96463 0.004919890941396317
65.396347 0.004672773131554494
78.015404 0.004797353184449959
82.411263 0.004315371340460946
84.959412 0.004928060125192741
92.390617 0.006206537389333088
112.673302 0.004276567717427932
127.07608 0.004225510318700283
186.964111 0.016387382695626423
210.088394 1.0
211.044342 0.006384217136905309
228.100357 0.018325521551328
END IONS

BEGIN IONS
CHARGE=1+
PRECURSORTYPE=M+Na
FORMULA=C19H21NO4
ONTOLOGY=
INCHIKEY=XDZOCYYGFXEJLH-UHFFFAOYSA-N
INCHI=InChI=1S/C19H21NO4/c1-22-15-10-14(11-16(12-15)23-2)19(21)20-9-5-7-13-6-4-8-17(24-3)18(13)20/h4,6,8,10-12H,5,7,9H2,1-3H3
SMILES=COc1cc(OC)cc(C(=O)N2CCCc3cccc(OC)c32)c1
IONMODE=positive
INSTRUMENTTYPE=LC-ESI-Orbitrap
INSTRUMENT=Orbitrap
COMMENT=DB#=CCMSLIB00010106854; origin=GNPS
NUM_PEAKS=5
COMPOUND_NAME="3,5-dimethoxyphenyl 8-methoxy(1,2,3,4-tetrahydroquinolyl) ketone "
PRECURSOR_MZ=350.136
COLLISION_ENERGY=102040
PARENT_MASS=349.12872354800925
82.42025 0.0004649988684041016
335.113678 0.0007268327501262164
348.429047 0.0006208109190299611
350.135712 1.0
368.145294 0.0035015058930032554
END IONS

BEGIN IONS
CHARGE=1+
PRECURSORTYPE=M+Na
FORMULA=C21H24N2O4
ONTOLOGY=
INCHIKEY=VLKOBKMDQICOFI-UHFFFAOYSA-N
INCHI=InChI=1S/C21H24N2O4/c1-13-15(16-7-5-6-8-17(16)23-13)9-10-22-21(24)14-11-18(25-2)20(27-4)19(12-14)26-3/h5-8,11-12,23H,9-10H2,1-4H3,(H,22,24)
SMILES=COc1cc(C(O)=NCCc2c(C)[nH]c3ccccc23)cc(OC)c1OC
IONMODE=positive
INSTRUMENTTYPE=LC-ESI-Orbitrap
INSTRUMENT=Orbitrap
COMMENT=DB#=CCMSLIB00010106280; origin=GNPS
NUM_PEAKS=14
COMPOUND_NAME="N-[2-(2-methylindol-3-yl)ethyl](3,4,5-trimethoxyphenyl)carboxamide "
PRECURSOR_MZ=391.163
COLLISION_ENERGY=102040
PARENT_MASS=390.15572354800923
58.16827 0.0003571907218962101
66.39344 0.0003154087809485518
71.085983 0.0003559941030623869
78.620506 0.00028619133775603656
82.405067 0.0004068504034998708
118.661911 0.0004092436411675171
122.371117 0.00030374174731877604
142.800919 0.0003689574737621377
149.022522 0.0026410374844838425
149.287109 0.00043716474729005723
209.197678 0.0012792852515930986
220.143066 0.0003323608810943797
376.140839 0.0012728035662432232
391.162109 1.0
END IONS

BEGIN IONS
CHARGE=1+
PRECURSORTYPE=M+Na
FORMULA=C17H14INO3
ONTOLOGY=
INCHIKEY=SIPWMMYQAMLGJU-UHFFFAOYSA-N
INCHI=InChI=1S/C17H14INO3/c1-22-17(21)15(19-14-9-7-13(18)8-10-14)11-16(20)12-5-3-2-4-6-12/h2-11,19H,1H3/b15-11+
SMILES=COC(=O)C(=CC(=O)c1ccccc1)Nc1ccc(I)cc1
IONMODE=positive
INSTRUMENTTYPE=LC-ESI-Orbitrap
INSTRUMENT=Orbitrap
COMMENT=DB#=CCMSLIB00010106823; origin=GNPS
NUM_PEAKS=12
COMPOUND_NAME=methyl (2E)-2-[(4-iodophenyl)amino]-4-oxo-4-phenylbut-2-enoate
PRECURSOR_MZ=429.991
COLLISION_ENERGY=102040
PARENT_MASS=428.9837235480092
53.616699 0.0021331386119136805
94.927101 0.0022602364343313076
97.600723 0.0022367597664962047
101.809837 0.0020578513667873152
152.23616 0.0019728496384188382
154.077835 0.001983373661931126
311.293976 0.0027014358815772113
331.382843 0.0022691413773032435
389.234283 0.0078088254461174044
429.990356 1.0
430.390533 0.00458766471108722
448.002228 0.0027208648480614344
END IONS

BEGIN IONS
CHARGE=1+
PRECURSORTYPE=M+Na
FORMULA=C20H21ClN2O3
ONTOLOGY=
INCHIKEY=DKTGAOACMHIWJV-UHFFFAOYSA-N
INCHI=InChI=1S/C20H21ClN2O3/c1-12-14(15-5-4-6-16(21)19(15)23-12)9-10-22-20(24)13-7-8-17(25-2)18(11-13)26-3/h4-8,11,23H,9-10H2,1-3H3,(H,22,24)
SMILES=COc1ccc(C(O)=NCCc2c(C)[nH]c3c(Cl)cccc23)cc1OC
IONMODE=positive
INSTRUMENTTYPE=LC-ESI-Orbitrap
INSTRUMENT=Orbitrap
COMMENT=DB#=CCMSLIB00010111476; origin=GNPS
NUM_PEAKS=13
COMPOUND_NAME="(3,4-dimethoxyphenyl)-N-[2-(7-chloro-2-methylindol-3-yl)ethyl]carboxamide "
PRECURSOR_MZ=395.113
COLLISION_ENERGY=102040
PARENT_MASS=394.1057235480092
74.121719 0.00047964342983001156
107.697906 0.0005482489591975683
110.661324 0.00046089224392911754
116.461029 0.00041699065789131006
141.381805 0.00041267490875539003
165.054108 0.0005976568458570668
181.400162 0.0004635709847721024
199.785751 0.0005095560359100092
359.15921 0.00047130956942961424
380.091248 0.001679570508551508
393.088928 0.0007993065037595384
395.113068 1.0
397.151276 0.0007969254007879963
END IONS

BEGIN IONS
CHARGE=1+
PRECURSORTYPE=M+Na
FORMULA=C19H18ClN3O2
ONTOLOGY=
INCHIKEY=ZEVYCQPUTLTHNJ-UHFFFAOYSA-N
INCHI=InChI=1S/C19H18ClN3O2/c1-12-15(16-7-2-3-8-17(16)22-12)9-10-21-19(25)23-18(24)13-5-4-6-14(20)11-13/h2-8,11,22H,9-10H2,1H3,(H2,21,23,24,25)
SMILES=Cc1[nH]c2ccccc2c1CCN=C(O)N=C(O)c1cccc(Cl)c1
IONMODE=positive
INSTRUMENTTYPE=LC-ESI-Orbitrap
INSTRUMENT=Orbitrap
COMMENT=DB#=CCMSLIB00010112049; origin=GNPS
NUM_PEAKS=13
COMPOUND_NAME=(3-chlorophenyl)-N-({[2-(2-methylindol-3-yl)ethyl]amino}carbonyl)carboxamide
PRECURSOR_MZ=378.098
COLLISION_ENERGY=102040
PARENT_MASS=377.09072354800924
66.744011 0.0008985002026994979
72.47654 0.0007087770523286876
117.406837 0.0008379439141377456
145.034836 0.0009414563876891153
158.096985 0.0046285289326312784
159.099854 0.0012648210024720687
178.002945 0.0090228869957011
197.105042 0.052772269873425426
208.734985 0.0035498513984475516
223.08432 0.07050064538684879
228.089096 0.0009578632639004275
375.640045 0.0009996262215292223
378.097992 1.0
END IONS

BEGIN IONS
CHARGE=1+
PRECURSORTYPE=M+Na
FORMULA=C21H14F3NO5
ONTOLOGY=
INCHIKEY=IOIYKTDJCWZSTH-UHFFFAOYSA-N
INCHI=InChI=1S/C21H14F3NO5/c1-28-19(26)16-14(10-5-4-6-11(9-10)21(22,23)24)15-17(30-18(16)25)12-7-2-3-8-13(12)29-20(15)27/h2-9,14H,25H2,1H3
SMILES=COC(=O)C1=C(N)Oc2c(c(=O)oc3ccccc23)C1c1cccc(C(F)(F)F)c1
IONMODE=positive
INSTRUMENTTYPE=LC-ESI-Orbitrap
INSTRUMENT=Orbitrap
COMMENT=DB#=CCMSLIB00010105865; origin=GNPS
NUM_PEAKS=18
COMPOUND_NAME="methyl 2-amino-5-oxo-4-[3-(trifluoromethyl)phenyl]-4H-pyrano[3,2-c]chromene-3- carboxylate "
PRECURSOR_MZ=440.072
COLLISION_ENERGY=102040
PARENT_MASS=439.0647235480092
70.744751 0.0006498476638921717
104.308907 0.0007065616418318521
118.683243 0.000741062645078491
122.021049 0.03833179614822293
160.642792 0.0007850159779817434
168.964279 0.0035117767756732954
204.29213 0.0007264115341107402
210.836792 0.001526551239543065
241.00444 0.0006930920720711779
299.049072 0.005531267006808749
319.055817 0.006867117495529639
341.038879 0.01599145131305856
408.046234 0.00321166530907582
419.51416 0.0052363543215224115
428.519409 0.0015312774043713716
438.950745 0.001544983282373461
440.070831 1.0
458.084167 0.001204226798252548
END IONS

BEGIN IONS
CHARGE=1+
PRECURSORTYPE=M+Na
FORMULA=C20H20N4O4S
ONTOLOGY=
INCHIKEY=FHZLPXXJDOAZFG-UHFFFAOYSA-N
INCHI=InChI=1S/C20H20N4O4S/c1-11-4-6-13(7-5-11)22-20-23-16(17(21)25)19(29-20)24-18(26)12-8-14(27-2)10-15(9-12)28-3/h4-10H,1-3H3,(H2,21,25)(H,22,23)(H,24,26)
SMILES=COc1cc(OC)cc(C(O)=Nc2sc(Nc3ccc(C)cc3)nc2C(N)=O)c1
IONMODE=positive
INSTRUMENTTYPE=LC-ESI-Orbitrap
INSTRUMENT=Orbitrap
COMMENT=DB#=CCMSLIB00010109670; origin=GNPS
NUM_PEAKS=11
COMPOUND_NAME="5-[(3,5-dimethoxyphenyl)carbonylamino]-2-[(4-methylphenyl)amino]-1,3-thiazole- 4-carboxamide "
PRECURSOR_MZ=435.11
COLLISION_ENERGY=102040
PARENT_MASS=434.10272354800924
79.732712 0.0014981417224615371
92.367249 0.0015854121140612381
104.278473 0.0016598828482263166
154.115799 0.0015475949443680343
167.791763 0.0016622100586689752
176.667084 0.0017052634518581612
184.040558 0.0016459195855703644
392.102997 0.007334785512649552
397.543274 0.0014585791449363392
418.081787 0.012004915068454896
435.109039 1.0
END IONS

BEGIN IONS
CHARGE=1+
PRECURSORTYPE=M+Na
FORMULA=C14H12FN5O2S
ONTOLOGY=
INCHIKEY=NZFBLPZLGWFCEN-UHFFFAOYSA-N
INCHI=InChI=1S/C14H12FN5O2S/c1-20-12-11(13(22)17-7-16-12)19-14(20)23-6-10(21)18-9-4-2-3-8(15)5-9/h2-5,7H,6H2,1H3,(H,18,21)(H,16,17,22)
SMILES=Cn1c(SCC(O)=Nc2cccc(F)c2)nc2c(O)ncnc21
IONMODE=positive
INSTRUMENTTYPE=LC-ESI-Orbitrap
INSTRUMENT=Orbitrap
COMMENT=DB#=CCMSLIB00010111347; origin=GNPS
NUM_PEAKS=14
COMPOUND_NAME=N-(3-fluorophenyl)-2-(9-methyl-6-oxohydropurin-8-ylthio)acetamide
PRECURSOR_MZ=356.059
COLLISION_ENERGY=102040
PARENT_MASS=355.05172354800925
56.17519 0.0007163104267218264
65.463852 0.0007271636150054904
65.655441 0.0007597231798564826
66.385277 0.0007447202431114175
66.747307 0.0008682550626931229
86.569672 0.0009464618606195255
92.384193 0.0011287315815010598
104.291656 0.001026264715646467
149.366516 0.0009036875303250849
173.043594 0.0013828238719068413
174.095367 0.000891238284940882
204.007538 0.014514224060880002
245.010483 0.003397367144206951
356.05838 1.0
END IONS

BEGIN IONS
CHARGE=1+
PRECURSORTYPE=M+Na
FORMULA=C24H22N2OS
ONTOLOGY=
INCHIKEY=UUNUEWJUIFKEHU-UHFFFAOYSA-N
INCHI=InChI=1S/C24H22N2OS/c1-17-12-14-18(15-13-17)25-23(27)16-22-24(28-19-8-4-3-5-9-19)20-10-6-7-11-21(20)26(22)2/h3-15H,16H2,1-2H3,(H,25,27)
SMILES=Cc1ccc(NC(=O)Cc2c(Sc3ccccc3)c3ccccc3n2C)cc1
IONMODE=positive
INSTRUMENTTYPE=LC-ESI-Orbitrap
INSTRUMENT=Orbitrap
COMMENT=DB#=CCMSLIB00010106711; origin=GNPS
NUM_PEAKS=10
COMPOUND_NAME=N-(4-methylphenyl)-2-(1-methyl-3-phenylthioindol-2-yl)acetamide
PRECURSOR_MZ=409.134
COLLISION_ENERGY=102040
PARENT_MASS=408.12672354800924
66.732803 0.0007309105954667444
82.387497 0.0007502298182544116
82.900162 0.0008379712884150671
136.187927 0.0009732058479287378
136.199493 0.0008296532897148214
157.947632 0.0009552282378346586
407.00238 0.0008487041899637711
409.133911 1.0
450.160004 0.0033306876731015777
543.344788 0.0007504981407931293
END IONS

BEGIN IONS
CHARGE=1+
PRECURSORTYPE=M+Na
FORMULA=C27H30O15
ONTOLOGY=
INCHIKEY=HGUVPEBGCAVWID-UHFFFAOYSA-N
INCHI=InChI=1S/C27H30O15/c28-7-15-19(32)22(35)24(37)26(40-15)18-14(41-27-25(38)23(36)20(33)16(8-29)42-27)6-13-17(21(18)34)11(31)5-12(39-13)9-1-3-10(30)4-2-9/h1-6,15-16,19-20,22-30,32-38H,7-8H2/t15-,16-,19-,20-,22+,23+,24-,25-,26+,27-/m1/s1
SMILES=O=c1cc(-c2ccc(O)cc2)oc2cc(OC3OC(CO)C(O)C(O)C3O)c(C3OC(CO)C(O)C(O)C3O)c(O)c12
IONMODE=positive
INSTRUMENTTYPE=LC-ESI-Orbitrap
INSTRUMENT=Orbitrap
COMMENT=DB#=CCMSLIB00010113815; origin=GNPS
NUM_PEAKS=21
COMPOUND_NAME=Saponarin
PRECURSOR_MZ=617.148
COLLISION_ENERGY=102040
PARENT_MASS=616.1407235480093
55.69717 0.0008468107050790067
63.584751 0.001050257566675286
82.400833 0.0015046222242403103
143.030884 0.003373089995161503
144.79213 0.0010263746742270273
206.101181 0.0010829859748451224
233.7565 0.001012516699596556
301.809235 0.001025784973178922
305.042145 0.01645089013898959
335.052521 0.00911088119322469
365.062897 0.011776035080135949
371.054688 0.0013961172313889613
377.060394 0.0012121305043801519
419.071747 0.012690366555222998
437.083618 0.07357611522050839
455.093933 0.14373697682091574
497.10614 0.006752666701852162
527.116089 0.00744173237656304
599.134827 0.01034807399214931
617.146973 1.0
623.972351 0.001036399592044815
END IONS

BEGIN IONS
CHARGE=1+
PRECURSORTYPE=M+Na
FORMULA=C22H20N2O4
ONTOLOGY=
INCHIKEY=KXBZBBGZKWRRHH-UHFFFAOYSA-N
INCHI=InChI=1S/C22H20N2O4/c1-13-16(17-12-15(27-2)7-8-19(17)24-13)9-10-23-21(25)18-11-14-5-3-4-6-20(14)28-22(18)26/h3-8,11-12,24H,9-10H2,1-2H3,(H,23,25)
SMILES=COc1ccc2[nH]c(C)c(CCN=C(O)c3cc4ccccc4oc3=O)c2c1
IONMODE=positive
INSTRUMENTTYPE=LC-ESI-Orbitrap
INSTRUMENT=Orbitrap
COMMENT=DB#=CCMSLIB00010108272; origin=GNPS
NUM_PEAKS=16
COMPOUND_NAME=N-[2-(5-methoxy-2-methylindol-3-yl)ethyl](2-oxochromen-3-yl)carboxamide
PRECURSOR_MZ=399.132
COLLISION_ENERGY=102040
PARENT_MASS=398.12472354800923
54.056992 0.00043421406323686246
73.970154 0.0007471288812357229
85.362343 0.0004148806534291526
91.792267 0.0003732064145103112
92.057182 0.0003878138796983587
96.725998 0.00045841662810725486
97.260307 0.0004933599762041527
128.446335 0.0004534042626015523
136.238571 0.0005454885774634595
224.033249 0.000544486104362319
267.035797 0.00045469315658873297
384.108215 0.004267814412441207
398.121582 0.0005073945996201199
399.1315 1.0
401.196655 0.0008074204777471737
401.253021 0.0005911727087868629
END IONS

BEGIN IONS
CHARGE=1+
PRECURSORTYPE=M+Na
FORMULA=C22H22ClN3O3
ONTOLOGY=
INCHIKEY=DYYXYCYEWPMGMK-UHFFFAOYSA-N
INCHI=InChI=1S/C22H22ClN3O3/c1-3-25(4-2)22(29)18-13-21(28)26(19-11-6-5-10-17(18)19)14-20(27)24-16-9-7-8-15(23)12-16/h5-13H,3-4,14H2,1-2H3,(H,24,27)
SMILES=CCN(CC)C(=O)c1cc(=O)n(CC(O)=Nc2cccc(Cl)c2)c2ccccc12
IONMODE=positive
INSTRUMENTTYPE=LC-ESI-Orbitrap
INSTRUMENT=Orbitrap
COMMENT=DB#=CCMSLIB00010112542; origin=GNPS
NUM_PEAKS=18
COMPOUND_NAME="2-[4-(N,N-diethylcarbamoyl)-2-oxohydroquinolyl]-N-(3-chlorophenyl)acetamide "
PRECURSOR_MZ=434.124
COLLISION_ENERGY=102040
PARENT_MASS=433.11672354800925
54.01141 0.00029947373678437784
55.448509 0.0002820200484699771
55.980888 0.0003083484935544121
59.307659 0.0003078554515116324
92.374863 0.00031495525692765977
95.617126 0.0002975015686132591
152.926849 0.0003374379740784132
154.80957 0.000367020496645194
199.600677 0.0003545958371671461
215.426483 0.0003852630522280422
220.63591 0.0003592304323692751
257.125732 0.0003735286516098858
334.047455 0.0005740981546126598
363.050507 0.004014644137537825
416.111816 0.002035376161003076
431.795349 0.0013644445491884873
434.123749 1.0
436.471405 0.0012578488595395205
END IONS

BEGIN IONS
CHARGE=1+
PRECURSORTYPE=M+Na
FORMULA=C15H21NO6
ONTOLOGY=
INCHIKEY=QTUHHHIOMGXNRY-UHFFFAOYSA-N
INCHI=InChI=1S/C15H21NO6/c1-8(2)12(15(18)19)16-14(17)9-6-10(20-3)13(22-5)11(7-9)21-4/h6-8,12H,1-5H3,(H,16,17)(H,18,19)
SMILES=COc1cc(C(O)=NC(C(=O)O)C(C)C)cc(OC)c1OC
IONMODE=positive
INSTRUMENTTYPE=LC-ESI-Orbitrap
INSTRUMENT=Orbitrap
COMMENT=DB#=CCMSLIB00010109486; origin=GNPS
NUM_PEAKS=13
COMPOUND_NAME="3-methyl-2-[(3,4,5-trimethoxyphenyl)carbonylamino]butanoic acid "
PRECURSOR_MZ=334.126
COLLISION_ENERGY=102040
PARENT_MASS=333.1187235480092
51.3363 0.0011315219668925054
58.90871 0.0012233814007928698
82.389282 0.0014680576809514437
92.367706 0.0015578005380338272
100.62043 0.0009118212931861042
195.065292 0.004198865091510199
235.057587 0.02483294917464087
253.763718 0.001081994069351756
316.116455 0.0015616103763061925
319.101105 0.0015548373304886541
334.125519 1.0
335.708344 0.0017694582198319014
352.135132 0.0018498881389151698
END IONS

BEGIN IONS
CHARGE=1+
PRECURSORTYPE=M+Na
FORMULA=C16H12O2
ONTOLOGY=
INCHIKEY=OPHKKQQCOYMLPW-UHFFFAOYSA-N
INCHI=InChI=1S/C16H12O2/c1-11-6-8-12(9-7-11)16-10-14(17)13-4-2-3-5-15(13)18-16/h2-10H,1H3
SMILES=Cc1ccc(-c2cc(=O)c3ccccc3o2)cc1
IONMODE=positive
INSTRUMENTTYPE=LC-ESI-Orbitrap
INSTRUMENT=Orbitrap
COMMENT=DB#=CCMSLIB00010103609; origin=GNPS
NUM_PEAKS=15
COMPOUND_NAME=4'-Methylflavone
PRECURSOR_MZ=259.073
COLLISION_ENERGY=102040
PARENT_MASS=258.0657235480092
66.045258 0.004709254221041663
79.021446 0.0068170925660547416
82.373009 0.006550036124152632
92.348587 0.007613493026727104
93.251534 0.004773633899000208
112.910622 0.005584340954774469
118.137833 0.006049305295586177
123.174957 0.005996847780212549
155.975067 0.010863474547375098
215.446503 0.005369742028245987
224.450592 0.006082687350823941
259.072601 1.0
259.166199 0.024850555691998084
259.282166 0.008605416953792083
277.083954 0.025396590738387216
END IONS

BEGIN IONS
CHARGE=1+
PRECURSORTYPE=M+Na
FORMULA=C24H21N3O2
ONTOLOGY=
INCHIKEY=PXHLOLMVLMSNKI-UHFFFAOYSA-N
INCHI=InChI=1S/C24H21N3O2/c28-22(25-16-15-18-9-3-1-4-10-18)17-27-21-14-8-7-13-20(21)26-24(27)23(29)19-11-5-2-6-12-19/h1-14H,15-17H2,(H,25,28)
SMILES=O=C(c1ccccc1)c1nc2ccccc2n1CC(O)=NCCc1ccccc1
IONMODE=positive
INSTRUMENTTYPE=LC-ESI-Orbitrap
INSTRUMENT=Orbitrap
COMMENT=DB#=CCMSLIB00010104031; origin=GNPS
NUM_PEAKS=12
COMPOUND_NAME=2-[2-(phenylcarbonyl)benzimidazolyl]-N-(2-phenylethyl)acetamide
PRECURSOR_MZ=406.153
COLLISION_ENERGY=102040
PARENT_MASS=405.14572354800924
82.386177 0.0008628978794573429
82.483719 0.0009902738108568134
99.879173 0.0009011106588771841
118.63578 0.0010566277844230492
132.218796 0.0008560847482429527
135.174606 0.000773142281285158
143.719986 0.0008623054332647873
180.144745 0.0007672178193596012
235.492065 0.0008854108347744586
278.988647 0.0009959020496860924
406.151886 1.0
408.277008 0.0011220930887004515
END IONS

BEGIN IONS
CHARGE=1+
PRECURSORTYPE=M+Na
FORMULA=C6H10O4
ONTOLOGY=
INCHIKEY=WNLRTRBMVRJNCN-UHFFFAOYSA-N
INCHI=InChI=1S/C6H10O4/c7-5(8)3-1-2-4-6(9)10/h1-4H2,(H,7,8)(H,9,10)
SMILES=O=C(O)CCCCC(=O)O
IONMODE=positive
INSTRUMENTTYPE=LC-ESI-Orbitrap
INSTRUMENT=Orbitrap
COMMENT=DB#=CCMSLIB00010112702; origin=GNPS
NUM_PEAKS=13
COMPOUND_NAME=adipic acid
PRECURSOR_MZ=169.047
COLLISION_ENERGY=102040
PARENT_MASS=168.03972354800925
50.540371 0.03407204920433467
53.003891 0.03425103322594292
56.73481 0.041833447232256175
57.757149 0.04272836734029744
73.936287 0.043232776855738876
74.984619 0.03633375638647532
86.744598 0.036659181880308506
113.963997 0.05732370073871587
169.032608 0.058527775065898666
169.047409 1.0
169.085678 0.06720036447655309
174.303802 0.036805623352533436
185.356781 0.04977382928178593
END IONS

BEGIN IONS
CHARGE=1+
PRECURSORTYPE=M+Na
FORMULA=C6H10O4
ONTOLOGY=
INCHIKEY=WNLRTRBMVRJNCN-UHFFFAOYSA-N
INCHI=InChI=1S/C6H10O4/c7-5(8)3-1-2-4-6(9)10/h1-4H2,(H,7,8)(H,9,10)
SMILES=O=C(O)CCCCC(=O)O
IONMODE=positive
INSTRUMENTTYPE=LC-ESI-Orbitrap
INSTRUMENT=Orbitrap
COMMENT=DB#=CCMSLIB00010112703; origin=GNPS
NUM_PEAKS=14
COMPOUND_NAME=adipic acid
PRECURSOR_MZ=169.047
COLLISION_ENERGY=102040
PARENT_MASS=168.03972354800925
61.91111 0.039261904097743314
61.93483 0.0483974448380708
68.989754 0.03385031660576306
86.956192 0.06417194342938436
86.964401 0.04690507406064325
92.360222 0.039261904097743314
93.073837 0.045454545454545456
97.010246 0.04592875672961589
100.776779 0.03629110993333148
104.26841 0.03816006025272672
104.968193 0.034477949175709226
146.769028 0.0393734832212893
169.047043 1.0
181.641205 0.03721163770258585
END IONS

BEGIN IONS
CHARGE=1+
PRECURSORTYPE=M+Na
FORMULA=C26H18O6
ONTOLOGY=
INCHIKEY=WFUFWBKEAWXSJX-UHFFFAOYSA-N
INCHI=InChI=1S/C26H18O6/c1-14-10-12-15(13-11-14)20(21-23(27)16-6-2-4-8-18(16)31-25(21)29)22-24(28)17-7-3-5-9-19(17)32-26(22)30/h2-13,20,27-28H,1H3
SMILES=Cc1ccc(C(c2c(O)c3ccccc3oc2=O)c2c(O)c3ccccc3oc2=O)cc1
IONMODE=positive
INSTRUMENTTYPE=LC-ESI-Orbitrap
INSTRUMENT=Orbitrap
COMMENT=DB#=CCMSLIB00010112306; origin=GNPS
NUM_PEAKS=12
COMPOUND_NAME=4-hydroxy-3-[(4-hydroxy-2-oxochromen-3-yl)(4-methylphenyl)methyl]chromen-2-one
PRECURSOR_MZ=449.1
COLLISION_ENERGY=102040
PARENT_MASS=448.09272354800925
61.625549 0.002788111575093177
65.280144 0.0032794543908442235
82.399902 0.0037144136047877734
92.381798 0.003299016048614172
185.020752 1.0
203.03157 0.017650368737248963
226.04686 0.049054884258273715
283.042419 0.0036499752027220624
287.067291 0.4190486820620749
328.092804 0.014645928240935186
449.098633 0.5028047965184852
449.209412 0.01619590194776577
END IONS

BEGIN IONS
CHARGE=1+
PRECURSORTYPE=M+Na
FORMULA=C15H10O4
ONTOLOGY=
INCHIKEY=ZQSIJRDFPHDXIC-UHFFFAOYSA-N
INCHI=InChI=1S/C15H10O4/c16-10-3-1-9(2-4-10)13-8-19-14-7-11(17)5-6-12(14)15(13)18/h1-8,16-17H
SMILES=O=c1c(-c2ccc(O)cc2)coc2cc(O)ccc12
IONMODE=positive
INSTRUMENTTYPE=LC-ESI-Orbitrap
INSTRUMENT=Orbitrap
COMMENT=DB#=CCMSLIB00010107331; origin=GNPS
NUM_PEAKS=10
COMPOUND_NAME=daidzein
PRECURSOR_MZ=277.047
COLLISION_ENERGY=102040
PARENT_MASS=276.03972354800925
59.195911 0.0010507340544852863
61.2873 0.0010915032770579076
101.56765 0.0011373686524521066
127.362213 0.0011030854425614933
129.842682 0.0010618529333687285
136.204605 0.0013083214152850302
207.985016 0.001108181595383071
277.046875 1.0
294.920807 0.0011447812383744015
295.058716 0.007692411040861416
END IONS

BEGIN IONS
CHARGE=1+
PRECURSORTYPE=M+Na
FORMULA=C15H10O4
ONTOLOGY=
INCHIKEY=ZQSIJRDFPHDXIC-UHFFFAOYSA-N
INCHI=InChI=1S/C15H10O4/c16-10-3-1-9(2-4-10)13-8-19-14-7-11(17)5-6-12(14)15(13)18/h1-8,16-17H
SMILES=O=c1c(-c2ccc(O)cc2)coc2cc(O)ccc12
IONMODE=positive
INSTRUMENTTYPE=LC-ESI-Orbitrap
INSTRUMENT=Orbitrap
COMMENT=DB#=CCMSLIB00010107332; origin=GNPS
NUM_PEAKS=14
COMPOUND_NAME=daidzein
PRECURSOR_MZ=277.047
COLLISION_ENERGY=102040
PARENT_MASS=276.03972354800925
67.707359 0.001981819670788633
70.794594 0.002237134309951972
72.022881 0.0021754734159653544
73.303833 0.0022583302422598717
84.960167 0.0021388622601608
136.175934 0.0025916844503750236
197.890488 0.0026408204752706096
198.595642 0.0023488946803027163
230.956238 0.003167828428562482
232.880783 0.0030011513245049065
253.877945 0.0033595552708021214
277.046936 1.0
277.140747 0.05241754059743626
295.058502 0.004531112256547857
END IONS

BEGIN IONS
CHARGE=1+
PRECURSORTYPE=M+Na
FORMULA=C24H21N3O4
ONTOLOGY=
INCHIKEY=CGDWTQJAKSBXSJ-UHFFFAOYSA-N
INCHI=InChI=1S/C24H21N3O4/c1-15-19-6-4-5-7-20(19)24(29)27(26-15)18-11-9-17(10-12-18)25-23(28)16-8-13-21(30-2)22(14-16)31-3/h4-14H,1-3H3,(H,25,28)
SMILES=COc1ccc(C(=O)Nc2ccc(-n3nc(C)c4ccccc4c3=O)cc2)cc1OC
IONMODE=positive
INSTRUMENTTYPE=LC-ESI-Orbitrap
INSTRUMENT=Orbitrap
COMMENT=DB#=CCMSLIB00010108965; origin=GNPS
NUM_PEAKS=13
COMPOUND_NAME="(3,4-dimethoxyphenyl)-N-[4-(4-methyl-1-oxo(2-hydrophthalazin-2-yl))phenyl]carb oxamide "
PRECURSOR_MZ=438.142
COLLISION_ENERGY=102040
PARENT_MASS=437.1347235480092
55.962601 0.0005698229967370808
65.670982 0.0005019193851159539
104.277611 0.0006072320360374927
208.544724 0.0017160288691406985
208.564102 0.0006611294196741052
346.27298 0.0006013813332085183
377.66394 0.0005086565580705305
384.435699 0.0005201806697033587
395.610382 0.0005572351209535299
422.112885 0.0011009958959979065
423.118408 0.002329820784107647
438.141998 1.0
452.755463 0.0005659225281844311
END IONS

BEGIN IONS
CHARGE=1+
PRECURSORTYPE=M+Na
FORMULA=C17H12FN5OS
ONTOLOGY=
INCHIKEY=LWSTYEFXLCIYPR-UHFFFAOYSA-N
INCHI=InChI=1S/C17H12FN5OS/c1-2-6-25-17-22-14(20)13-12(9-4-3-5-10(18)7-9)11(8-19)15(21)24-16(13)23-17/h1,3-5,7,12H,6,21H2,(H2,20,22,23)
SMILES=C#CCSc1nc(N)c2c(n1)OC(N)=C(C#N)C2c1cccc(F)c1
IONMODE=positive
INSTRUMENTTYPE=LC-ESI-Orbitrap
INSTRUMENT=Orbitrap
COMMENT=DB#=CCMSLIB00010104656; origin=GNPS
NUM_PEAKS=11
COMPOUND_NAME="4,7-diamino-5-(3-fluorophenyl)-2-prop-2-ynylthio-5H-pyrano[2,3-d]pyrimidine-6- carbonitrile "
PRECURSOR_MZ=376.064
COLLISION_ENERGY=102040
PARENT_MASS=375.05672354800924
54.0075 0.0012725074759814214
86.536232 0.0013772001365053475
104.304192 0.0024964283028799158
139.720901 0.0015356851585139426
187.097916 0.001973543412749368
208.378769 0.0014188458357192847
252.032532 0.002701186324015108
331.041595 0.0033744584613070966
333.058899 0.009542649244882495
358.052979 0.08580344386796
376.063873 1.0
END IONS

BEGIN IONS
CHARGE=1+
PRECURSORTYPE=M+Na
FORMULA=C10H17NO5
ONTOLOGY=
INCHIKEY=LLXWDSPVRCKBPZ-UHFFFAOYSA-N
INCHI=InChI=1S/C10H17NO5/c1-3-6(2)9(10(15)16)11-7(12)4-5-8(13)14/h6,9H,3-5H2,1-2H3,(H,11,12)(H,13,14)(H,15,16)
SMILES=CCC(C)C(N=C(O)CCC(=O)O)C(=O)O
IONMODE=positive
INSTRUMENTTYPE=LC-ESI-Orbitrap
INSTRUMENT=Orbitrap
COMMENT=DB#=CCMSLIB00010110618; origin=GNPS
NUM_PEAKS=16
COMPOUND_NAME=2-(3-carboxypropanoylamino)-3-methylpentanoic acid
PRECURSOR_MZ=254.1
COLLISION_ENERGY=102040
PARENT_MASS=253.09272354800925
73.978188 0.0008756379747944239
80.426422 0.0008874415374202444
82.752113 0.0008510989893354812
88.112289 0.009130987551279491
94.960136 0.0008066803194541038
108.07843 0.004189643492028091
114.92112 0.000769405911162039
123.005234 0.0042530099861246016
141.015839 0.1568090870037495
154.083786 0.06285117540187247
155.974167 0.0020103330872186984
167.070206 0.04404188773755835
177.68573 0.000975657637044798
236.089386 0.0012064483483864995
253.053879 0.0010800259802625795
254.099701 1.0
END IONS

BEGIN IONS
CHARGE=1+
PRECURSORTYPE=M+Na
FORMULA=C6H6N4S
ONTOLOGY=
INCHIKEY=UIJIQXGRFSPYQW-UHFFFAOYSA-N
INCHI=InChI=1S/C6H6N4S/c1-11-6-4-5(8-2-7-4)9-3-10-6/h2-3H,1H3,(H,7,8,9,10)
SMILES=CSc1ncnc2[nH]cnc12
IONMODE=positive
INSTRUMENTTYPE=LC-ESI-Orbitrap
INSTRUMENT=Orbitrap
COMMENT=DB#=CCMSLIB00010104006; origin=GNPS
NUM_PEAKS=51
COMPOUND_NAME=6-(Methylthio)purine
PRECURSOR_MZ=189.021
COLLISION_ENERGY=102040
PARENT_MASS=188.01372354800924
56.965199 0.011619662020348913
61.011169 0.004376872579505665
66.734703 0.003591742859058257
67.852501 0.002626123547703399
73.942543 0.0026287019704306484
79.021317 0.02860760015883084
84.959549 0.005186497315861941
102.181641 0.0028414218454287142
104.275093 0.003443483552241423
108.994034 0.0037077718817844748
112.339767 0.002736995724975118
118.000351 0.0032384989454251048
119.919937 0.003666517118148486
127.004089 0.008831097840828809
136.009827 0.049198884058643644
144.946411 0.005298658704497285
145.014999 0.07119411913344369
147.114716 0.003293935034060964
148.000412 0.037875740651928405
149.494095 0.028189895677016456
150.011993 0.002900725568155448
154.985367 0.004236348540870578
157.006104 0.14778616624638377
157.508224 0.004568965072685736
157.953323 0.0032217391976979842
158.49971 0.19582733850049247
159.001419 0.015679388604402916
159.017242 0.029267676377006658
164.99263 0.002874941340882955
166.011444 1.0
166.513077 0.09271363521506625
167.013351 0.004362691254505793
167.504929 0.13151502962607714
168.007324 0.026822042420210707
168.022018 0.0035491988840586435
168.514053 0.01450104941804999
170.00705 0.004440043936323273
175.016647 0.2776755003429302
175.518478 0.0259428002702187
177.014008 0.0053167076635880295
177.519608 0.07076223332662944
178.025909 0.03590066884285545
179.277878 0.0029883919408819236
179.385498 0.003046406452245033
180.985214 0.004370426522687542
181.506119 0.0038470067090559364
186.524551 0.011697014702166391
187.035095 0.003529860713604274
188.924438 0.003714217938602598
189.020309 0.5416196104518943
189.09494 0.009471835888550256
END IONS

BEGIN IONS
CHARGE=1+
PRECURSORTYPE=M+Na
FORMULA=C6H6N4S
ONTOLOGY=
INCHIKEY=UIJIQXGRFSPYQW-UHFFFAOYSA-N
INCHI=InChI=1S/C6H6N4S/c1-11-6-4-5(8-2-7-4)9-3-10-6/h2-3H,1H3,(H,7,8,9,10)
SMILES=CSc1ncnc2[nH]cnc12
IONMODE=positive
INSTRUMENTTYPE=LC-ESI-Orbitrap
INSTRUMENT=Orbitrap
COMMENT=DB#=CCMSLIB00010104007; origin=GNPS
NUM_PEAKS=12
COMPOUND_NAME=6-(Methylthio)purine
PRECURSOR_MZ=189.021
COLLISION_ENERGY=102040
PARENT_MASS=188.01372354800924
58.065979 0.018008461145086238
59.88237 0.012888242727514782
62.643318 0.012911487631597855
92.371887 0.021138070503907258
92.467667 0.01829585268647696
107.849228 0.014335766299960695
146.059586 0.021488857238251814
162.055008 0.06907540224249929
189.020599 1.0
189.064514 0.11424236404900871
189.102142 0.06186314245745126
190.050232 0.029054016930742863
END IONS

BEGIN IONS
CHARGE=1+
PRECURSORTYPE=M+Na
FORMULA=C21H23N3O2
ONTOLOGY=
INCHIKEY=OAUXOLFBALGKAQ-UHFFFAOYSA-N
INCHI=InChI=1S/C21H23N3O2/c1-2-16-6-7-19-18(13-16)17(14-21(25)26-19)15-23-9-11-24(12-10-23)20-5-3-4-8-22-20/h3-8,13-14H,2,9-12,15H2,1H3
SMILES=CCc1ccc2oc(=O)cc(CN3CCN(c4ccccn4)CC3)c2c1
IONMODE=positive
INSTRUMENTTYPE=LC-ESI-Orbitrap
INSTRUMENT=Orbitrap
COMMENT=DB#=CCMSLIB00010104761; origin=GNPS
NUM_PEAKS=9
COMPOUND_NAME=6-ethyl-4-[(4-(2-pyridyl)piperazinyl)methyl]chromen-2-one
PRECURSOR_MZ=372.168
COLLISION_ENERGY=102040
PARENT_MASS=371.16072354800923
66.70134 0.0032748801187106034
71.685143 0.003922558359458383
92.37336 0.003679298926313677
104.284737 0.004136930734917155
221.645523 0.005140375896639067
318.158997 0.003641289639884817
330.048676 0.0043497827389187725
372.167786 1.0
393.161713 0.0037933267856002577
END IONS

BEGIN IONS
CHARGE=1+
PRECURSORTYPE=M+Na
FORMULA=C25H21N3O3
ONTOLOGY=
INCHIKEY=RCNBNDFBTBRBPI-UHFFFAOYSA-N
INCHI=InChI=1S/C25H21N3O3/c29-23(27-19-11-5-2-6-12-19)17-28-22-14-8-7-13-20(22)21(15-24(28)30)25(31)26-16-18-9-3-1-4-10-18/h1-15H,16-17H2,(H,26,31)(H,27,29)
SMILES=O=c1cc(C(O)=NCc2ccccc2)c2ccccc2n1CC(O)=Nc1ccccc1
IONMODE=positive
INSTRUMENTTYPE=LC-ESI-Orbitrap
INSTRUMENT=Orbitrap
COMMENT=DB#=CCMSLIB00010112147; origin=GNPS
NUM_PEAKS=19
COMPOUND_NAME=2-{2-oxo-4-[N-benzylcarbamoyl]hydroquinolyl}-N-phenylacetamide
PRECURSOR_MZ=434.147
COLLISION_ENERGY=102040
PARENT_MASS=433.1397235480092
51.071419 0.00033843412510166544
64.335732 0.0003769214645164225
91.054268 0.0038944310304227046
120.065964 0.0003264532177907355
124.920959 0.00034734028628855137
134.041718 0.00045198768023446104
291.11377 0.0008412081292470593
319.105835 0.001878669881790855
341.089935 0.0007292449600404934
394.152435 0.0012098595869470877
414.145905 0.004300827647438583
416.138 0.0048374238589484605
423.153381 0.00391192527561123
431.821564 0.0008652759695973345
434.146729 1.0
434.648193 0.0030302153181095233
436.488281 0.0012589494992033758
452.158264 0.0018231124001012334
456.129639 0.001609046454430725
END IONS

BEGIN IONS
CHARGE=1+
PRECURSORTYPE=M+Na
FORMULA=C22H29N7O
ONTOLOGY=
INCHIKEY=NZPAMSHQYRPUFB-UHFFFAOYSA-N
INCHI=InChI=1S/C22H29N7O/c30-19-7-5-6-18-17-12-16(14-29(18)19)13-28(15-17)22-24-20(26-8-1-2-9-26)23-21(25-22)27-10-3-4-11-27/h5-7,16-17H,1-4,8-15H2
SMILES=O=c1cccc2n1CC1CC2CN(c2nc(N3CCCC3)nc(N3CCCC3)n2)C1
IONMODE=positive
INSTRUMENTTYPE=LC-ESI-Orbitrap
INSTRUMENT=Orbitrap
COMMENT=DB#=CCMSLIB00010103543; origin=GNPS
NUM_PEAKS=6
COMPOUND_NAME="3-(4,6-dipyrrolidin-1-yl-1,3,5-triazin-2-yl)-1,2,3,4,5,6-hexahydro-8H-1,5-methanopyrido[1,2-a][1,5]diazocin-8-one, 11-(4,6-dipyrrolidinyl-1,3,5-triazin-2-yl)-7,11-diazatricyclo[7.3.1.0<2,7>]tri deca-2,4-dien-6-one "
PRECURSOR_MZ=430.233
COLLISION_ENERGY=102040
PARENT_MASS=429.2257235480092
52.205528 0.00036841559911119737
65.829468 0.00032565307421436194
100.538887 0.0003581948857429977
129.895493 0.00040001757492781474
352.670013 0.00038086842229544067
430.231995 1.0
END IONS

BEGIN IONS
CHARGE=1+
PRECURSORTYPE=M+Na
FORMULA=C20H18N4OS
ONTOLOGY=
INCHIKEY=PLJXLEGHOLUORM-UHFFFAOYSA-N
INCHI=InChI=1S/C20H18N4OS/c1-13-6-8-16(9-7-13)24-18-17(19(25)22-12-21-18)23-20(24)26-11-15-5-3-4-14(2)10-15/h3-10,12H,11H2,1-2H3,(H,21,22,25)
SMILES=Cc1ccc(-n2c(SCc3cccc(C)c3)nc3c(O)ncnc32)cc1
IONMODE=positive
INSTRUMENTTYPE=LC-ESI-Orbitrap
INSTRUMENT=Orbitrap
COMMENT=DB#=CCMSLIB00010109040; origin=GNPS
NUM_PEAKS=17
COMPOUND_NAME=9-(4-methylphenyl)-8-[(3-methylphenyl)methylthio]hydropurin-6-one
PRECURSOR_MZ=385.109
COLLISION_ENERGY=102040
PARENT_MASS=384.1017235480092
63.739288 0.001202899071941125
87.16745 0.0012781394151506606
88.544182 0.001156524520780531
92.801826 0.001189175990475235
94.124741 0.0012483272036902787
96.307053 0.0013396566768943058
112.089996 0.0011371229228459968
127.012207 0.007839191984963289
133.413757 0.001217568572818456
156.449966 0.0011735600701864636
157.895737 0.0011797117963608281
157.94899 0.001276246576327779
213.460541 0.0014764142818474864
279.030548 0.04514420592572122
280.003296 0.0016164843547407095
280.03833 0.06599808444711125
385.108948 1.0
END IONS

BEGIN IONS
CHARGE=1+
PRECURSORTYPE=M+Na
FORMULA=C14H16N6O4
ONTOLOGY=
INCHIKEY=YXBXIPWDPVPYCY-UHFFFAOYSA-N
INCHI=InChI=1S/C14H16N6O4/c1-2-24-10-6-4-3-5-9(10)7-16-18-11(21)8-15-12-13(22)17-14(23)20-19-12/h3-7H,2,8H2,1H3,(H,15,19)(H,18,21)(H2,17,20,22,23)/b16-7+
SMILES=CCOc1ccccc1C=NN=C(O)CNc1nnc(O)nc1O
IONMODE=positive
INSTRUMENTTYPE=LC-ESI-Orbitrap
INSTRUMENT=Orbitrap
COMMENT=DB#=CCMSLIB00010110114; origin=GNPS
NUM_PEAKS=14
COMPOUND_NAME="N-[(1E)-2-(2-ethoxyphenyl)-1-azavinyl]-2-[(3,5-dioxo(2H,4H-1,2,4-triazin-6-yl) )amino]acetamide "
PRECURSOR_MZ=355.112
COLLISION_ENERGY=102040
PARENT_MASS=354.10472354800925
59.177502 0.001978781403569475
92.37413 0.002210699072796899
104.286652 0.0024996610074391333
105.596733 0.002241559085234419
116.234444 0.002092869934399095
120.485298 0.0021443032884616285
134.240875 0.002464125235541383
135.394028 0.002351907008495855
170.339645 0.002163941478194596
220.640427 0.002378091261473145
308.898407 0.012735833617775368
331.915527 0.00455886547372457
355.111755 1.0
373.855591 0.00239585914742202
END IONS

BEGIN IONS
CHARGE=1+
PRECURSORTYPE=M+Na
FORMULA=C20H22N2O4S
ONTOLOGY=
INCHIKEY=YLPJGUIDEISKHS-UHFFFAOYSA-N
INCHI=InChI=1S/C20H22N2O4S/c1-13-3-5-18-17(11-13)16(14(2)22-18)7-8-21-27(23,24)15-4-6-19-20(12-15)26-10-9-25-19/h3-6,11-12,21-22H,7-10H2,1-2H3
SMILES=Cc1ccc2[nH]c(C)c(CCNS(=O)(=O)c3ccc4c(c3)OCCO4)c2c1
IONMODE=positive
INSTRUMENTTYPE=LC-ESI-Orbitrap
INSTRUMENT=Orbitrap
COMMENT=DB#=CCMSLIB00010109376; origin=GNPS
NUM_PEAKS=15
COMPOUND_NAME="(2H,3H-benzo[3,4-e]1,4-dioxin-6-ylsulfonyl)[2-(2,5-dimethylindol-3-yl)ethyl]am ine "
PRECURSOR_MZ=409.119
COLLISION_ENERGY=102040
PARENT_MASS=408.11172354800925
78.577202 0.0002874779450841638
80.846786 0.00033056818411756695
82.495789 0.00038445719351700537
92.381317 0.00044463674876073624
110.871483 0.00032972944467166127
172.112061 0.004473311992307082
185.402969 0.0005076470496343988
199.044983 0.00037994896899526246
212.330887 0.0003769085385038545
238.015152 0.003975624973592813
306.832031 0.000337173257254074
377.074738 0.00037952959927230965
409.118896 1.0
418.226074 0.0003798441265645243
434.888 0.0003393749482995763
END IONS

BEGIN IONS
CHARGE=1+
PRECURSORTYPE=M+Na
FORMULA=C21H21NO2
ONTOLOGY=
INCHIKEY=IUEMWJYKAIDIHO-UHFFFAOYSA-N
INCHI=InChI=1S/C21H21NO2/c1-14-9-15(2)21-18(11-20(23)24-19(21)10-14)13-22-8-7-16-5-3-4-6-17(16)12-22/h3-6,9-11H,7-8,12-13H2,1-2H3
SMILES=Cc1cc(C)c2c(CN3CCc4ccccc4C3)cc(=O)oc2c1
IONMODE=positive
INSTRUMENTTYPE=LC-ESI-Orbitrap
INSTRUMENT=Orbitrap
COMMENT=DB#=CCMSLIB00010104165; origin=GNPS
NUM_PEAKS=9
COMPOUND_NAME="5,7-dimethyl-4-(2-1,2,3,4-tetrahydroisoquinolylmethyl)chromen-2-one "
PRECURSOR_MZ=342.146
COLLISION_ENERGY=102040
PARENT_MASS=341.13872354800924
50.059898 0.002830503706079864
68.365128 0.0032682917850973257
104.297958 0.0037034505062828503
106.333702 0.0032814385742570094
208.932068 0.008885914793030098
211.072922 0.012975880900607644
342.146332 1.0
345.763245 0.0033340257308957432
360.157623 0.022453401205823502
END IONS

BEGIN IONS
CHARGE=1+
PRECURSORTYPE=M+Na
FORMULA=C23H30N2O7
ONTOLOGY=
INCHIKEY=FNGZRVCLYISIFJ-UHFFFAOYSA-N
INCHI=InChI=1S/C23H30N2O7/c1-8-25(9-2)23(27)15-10-16(20(31-6)17(13-15)28-3)24-22(26)14-11-18(29-4)21(32-7)19(12-14)30-5/h10-13H,8-9H2,1-7H3,(H,24,26)
SMILES=CCN(CC)C(=O)c1cc(N=C(O)c2cc(OC)c(OC)c(OC)c2)c(OC)c(OC)c1
IONMODE=positive
INSTRUMENTTYPE=LC-ESI-Orbitrap
INSTRUMENT=Orbitrap
COMMENT=DB#=CCMSLIB00010105280; origin=GNPS
NUM_PEAKS=23
COMPOUND_NAME="{4,5-dimethoxy-3-[(3,4,5-trimethoxyphenyl)carbonylamino]phenyl}-N,N-diethylcar boxamide "
PRECURSOR_MZ=469.194
COLLISION_ENERGY=102040
PARENT_MASS=468.18672354800924
56.368778 0.00039199574932012837
73.940109 0.0004536536811131244
78.048119 0.00042404249141628014
83.302483 0.00044596246301004794
203.030762 0.0024336295947817647
230.078537 0.0004874950407666606
259.104797 0.0016132329971202798
304.680176 0.00044032223640112523
308.089966 0.0017523158578175784
322.105316 0.0009953718095064737
382.088776 0.0035818002706026904
411.14859 0.0005542804512950409
423.151031 0.004510771230485938
425.168427 0.002572584268510679
435.151733 0.002716666420974977
437.165863 0.0005500502813383488
439.146729 0.005313478026510347
453.097046 0.0007723264845172575
453.162323 0.015174901504338168
454.169464 0.005015058764110982
466.581909 0.000661572943832957
469.194031 1.0
471.827454 0.0006949015556129548
END IONS

BEGIN IONS
CHARGE=1+
PRECURSORTYPE=M+Na
FORMULA=C16H11ClO3
ONTOLOGY=
INCHIKEY=AXTXAKVFCNXMHV-UHFFFAOYSA-N
INCHI=InChI=1S/C16H11ClO3/c1-9-13-8-12(18)5-6-14(13)20-16(19)15(9)10-3-2-4-11(17)7-10/h2-8,18H,1H3
SMILES=Cc1c(-c2cccc(Cl)c2)c(=O)oc2ccc(O)cc12
IONMODE=positive
INSTRUMENTTYPE=LC-ESI-Orbitrap
INSTRUMENT=Orbitrap
COMMENT=DB#=CCMSLIB00010107472; origin=GNPS
NUM_PEAKS=11
COMPOUND_NAME=3-(3-chlorophenyl)-6-hydroxy-4-methylchromen-2-one
PRECURSOR_MZ=309.029
COLLISION_ENERGY=102040
PARENT_MASS=308.0217235480092
55.527111 0.003977617077863619
127.210457 0.004981828095549109
162.073578 0.0045542538731752095
166.666367 0.00494848515160252
179.214783 0.005164233612433388
212.105087 0.006925525592670828
309.027924 1.0
309.13092 0.023381249105134224
309.166382 0.018927024063798783
309.202789 0.02274969451979296
327.038422 0.010893335922314864
END IONS

BEGIN IONS
CHARGE=1+
PRECURSORTYPE=M+Na
FORMULA=C15H17N5O5
ONTOLOGY=
INCHIKEY=CAGLGYNQQSIUGX-UHFFFAOYSA-N
INCHI=InChI=1S/C15H17N5O5/c21-5-9-11(22)12(23)15(25-9)20-7-19-10-13(17-6-18-14(10)20)16-4-8-2-1-3-24-8/h1-3,6-7,9,11-12,15,21-23H,4-5H2,(H,16,17,18)/t9-,11-,12-,15-/m1/s1
SMILES=OCC1OC(n2cnc3c(NCc4ccco4)ncnc32)C(O)C1O
IONMODE=positive
INSTRUMENTTYPE=LC-ESI-Orbitrap
INSTRUMENT=Orbitrap
COMMENT=DB#=CCMSLIB00010106185; origin=GNPS
NUM_PEAKS=12
COMPOUND_NAME=Kinetin riboside
PRECURSOR_MZ=370.112
COLLISION_ENERGY=102040
PARENT_MASS=369.10472354800925
59.313049 0.000879210998353687
59.66674 0.0008150938644126103
66.889908 0.0009467835466987739
74.989067 0.0009379530432218591
79.904907 0.0009943914784873579
104.274567 0.0010535174582893088
125.303123 0.0010611961569648868
136.197189 0.0011855910755092514
155.030762 0.0017595738015087107
238.069504 0.03916405078998452
327.326477 0.0010304813622625747
370.111603 1.0
END IONS

BEGIN IONS
CHARGE=1+
PRECURSORTYPE=M+Na
FORMULA=C17H14O5
ONTOLOGY=
INCHIKEY=KJGPBYUQZLUKLL-UHFFFAOYSA-N
INCHI=InChI=1S/C17H14O5/c1-20-11-5-3-10(4-6-11)13-9-22-15-8-14(18)16(21-2)7-12(15)17(13)19/h3-9,18H,1-2H3
SMILES=COc1ccc(-c2coc3cc(O)c(OC)cc3c2=O)cc1
IONMODE=positive
INSTRUMENTTYPE=LC-ESI-Orbitrap
INSTRUMENT=Orbitrap
COMMENT=DB#=CCMSLIB00010105746; origin=GNPS
NUM_PEAKS=11
COMPOUND_NAME=Afrormosin
PRECURSOR_MZ=321.073
COLLISION_ENERGY=102040
PARENT_MASS=320.0657235480092
73.544342 0.0008381843523255828
104.269981 0.0010663584770088288
118.611298 0.0008063389121597639
148.699081 0.0007837688429160282
266.792877 0.0008400394265099995
306.049835 0.0010923295155906617
321.07312 1.0
321.236511 0.01677296241743374
322.568207 0.000891363145612193
338.907837 0.0009890637193248025
339.082672 0.004854110782556861
END IONS

BEGIN IONS
CHARGE=1+
PRECURSORTYPE=M+Na
FORMULA=C17H14O5
ONTOLOGY=
INCHIKEY=NAIAWYFLUAEJDT-UHFFFAOYSA-N
INCHI=InChI=1S/C17H14O5/c1-20-10-7-8-12(14(9-10)21-2)17-16(19)15(18)11-5-3-4-6-13(11)22-17/h3-9,19H,1-2H3
SMILES=COc1ccc(-c2oc3ccccc3c(=O)c2O)c(OC)c1
IONMODE=positive
INSTRUMENTTYPE=LC-ESI-Orbitrap
INSTRUMENT=Orbitrap
COMMENT=DB#=CCMSLIB00010103741; origin=GNPS
NUM_PEAKS=13
COMPOUND_NAME="2',4'-Dimethoxy-3-hydroxyflavone "
PRECURSOR_MZ=321.073
COLLISION_ENERGY=102040
PARENT_MASS=320.0657235480092
56.07687 0.00026541700376880737
60.996929 0.0002580827911992057
61.192551 0.0002322500647040531
72.162758 0.0002613424412301398
136.209167 0.0002910052565116399
201.300751 0.0003332177244122362
209.988983 0.00045333582805215703
306.049194 0.002701027506882751
316.021332 0.0018947530717312066
319.588867 0.0003158600879975122
321.072876 1.0
322.568298 0.0004083526576252667
339.083008 0.0039405094311454345
END IONS

BEGIN IONS
CHARGE=1+
PRECURSORTYPE=M+Na
FORMULA=C12H9BrO4
ONTOLOGY=
INCHIKEY=RXGDNKCWEKUYQA-UHFFFAOYSA-N
INCHI=InChI=1S/C12H9BrO4/c1-2-16-11(14)9-6-7-5-8(13)3-4-10(7)17-12(9)15/h3-6H,2H2,1H3
SMILES=CCOC(=O)c1cc2cc(Br)ccc2oc1=O
IONMODE=positive
INSTRUMENTTYPE=LC-ESI-Orbitrap
INSTRUMENT=Orbitrap
COMMENT=DB#=CCMSLIB00010107662; origin=GNPS
NUM_PEAKS=11
COMPOUND_NAME=ethyl 6-bromo-2-oxochromene-3-carboxylate
PRECURSOR_MZ=318.958
COLLISION_ENERGY=102040
PARENT_MASS=317.95072354800925
82.390533 0.0017417266289518644
85.990387 0.0017878471160113374
92.371033 0.0020360838551843835
220.122025 0.0017274835373599683
220.631989 0.0016033651677734454
318.956512 1.0
319.151672 0.0067681814759776695
319.18692 0.1471372403263974
319.220551 0.005559553418036773
333.59671 0.0018665232409951446
336.967529 0.003015465962741429
END IONS

BEGIN IONS
CHARGE=1+
PRECURSORTYPE=M+Na
FORMULA=C10H10N2O
ONTOLOGY=
INCHIKEY=ZOAMBXDOGPRZLP-UHFFFAOYSA-N
INCHI=InChI=1S/C10H10N2O/c11-10(13)5-7-6-12-9-4-2-1-3-8(7)9/h1-4,6,12H,5H2,(H2,11,13)
SMILES=N=C(O)Cc1c[nH]c2ccccc12
IONMODE=positive
INSTRUMENTTYPE=LC-ESI-Orbitrap
INSTRUMENT=Orbitrap
COMMENT=DB#=CCMSLIB00010107177; origin=GNPS
NUM_PEAKS=8
COMPOUND_NAME=indole-3-acetamide
PRECURSOR_MZ=197.069
COLLISION_ENERGY=102040
PARENT_MASS=196.06172354800924
57.556561 0.012669250480003997
65.140823 0.01018836893308194
92.366913 0.011324563093994381
96.007339 0.010286417098397909
118.641907 0.011573815805439381
139.727676 0.010592958488811052
197.068497 1.0
212.218628 0.013392402657142847
END IONS

BEGIN IONS
CHARGE=1+
PRECURSORTYPE=M+Na
FORMULA=C21H24N2O5
ONTOLOGY=
INCHIKEY=GSOQOOJRRSBXFX-UHFFFAOYSA-N
INCHI=InChI=1S/C21H24N2O5/c1-26-16-7-4-6-15(14-16)20(24)22-10-12-23(13-11-22)21(25)17-8-5-9-18(27-2)19(17)28-3/h4-9,14H,10-13H2,1-3H3
SMILES=COc1cccc(C(=O)N2CCN(C(=O)c3cccc(OC)c3OC)CC2)c1
IONMODE=positive
INSTRUMENTTYPE=LC-ESI-Orbitrap
INSTRUMENT=Orbitrap
COMMENT=DB#=CCMSLIB00010106935; origin=GNPS
NUM_PEAKS=10
COMPOUND_NAME="2,3-dimethoxyphenyl 4-[(3-methoxyphenyl)carbonyl]piperazinyl ketone "
PRECURSOR_MZ=407.158
COLLISION_ENERGY=102040
PARENT_MASS=406.15072354800924
90.864929 0.00024254993380818879
92.376427 0.0004106769881973639
103.094994 0.0002454713422250294
148.676849 0.0003060175316640503
350.944153 0.00030324219366805176
391.127289 0.0005337413177567732
392.132599 0.002947993233433825
405.040253 0.0006525696051117636
407.157166 1.0
409.2883 0.0010429428048120855
END IONS

BEGIN IONS
CHARGE=1+
PRECURSORTYPE=M+Na
FORMULA=C10H16N2O3S
ONTOLOGY=
INCHIKEY=YBJHBAHKTGYVGT-ZKWXMUAHSA-N
INCHI=InChI=1S/C10H16N2O3S/c13-8(14)4-2-1-3-7-9-6(5-16-7)11-10(15)12-9/h6-7,9H,1-5H2,(H,13,14)(H2,11,12,15)/t6-,7-,9-/m0/s1
SMILES=O=C(O)CCCC[C@@H]1SC[C@@H]2N=C(O)N[C@H]12
IONMODE=positive
INSTRUMENTTYPE=LC-ESI-Orbitrap
INSTRUMENT=Orbitrap
COMMENT=DB#=CCMSLIB00010102890; origin=GNPS
NUM_PEAKS=16
COMPOUND_NAME=biotin
PRECURSOR_MZ=267.077
COLLISION_ENERGY=102040
PARENT_MASS=266.0697235480092
62.407902 0.00022675691476254481
64.050499 0.00022069973022273426
76.823799 0.00025279297563044037
79.280602 0.0002326412952828981
82.718201 0.0002169066749871992
92.386398 0.0002565572204621096
92.663002 0.0002851526443292371
98.984703 0.012147657450076805
104.299004 0.00029955036266321043
116.579002 0.00025202253568228365
118.666 0.00026356567676331287
136.218002 0.0003337517507520481
155.046997 0.002037418363495264
211.110001 0.0005545970958141321
224.645004 0.00026753391905081925
267.076996 1.0
END IONS

BEGIN IONS
CHARGE=1+
PRECURSORTYPE=M+Na
FORMULA=C10H16N2O3S
ONTOLOGY=
INCHIKEY=YBJHBAHKTGYVGT-ZKWXMUAHSA-N
INCHI=InChI=1S/C10H16N2O3S/c13-8(14)4-2-1-3-7-9-6(5-16-7)11-10(15)12-9/h6-7,9H,1-5H2,(H,13,14)(H2,11,12,15)/t6-,7-,9-/m0/s1
SMILES=O=C(O)CCCC[C@@H]1SC[C@@H]2N=C(O)N[C@H]12
IONMODE=positive
INSTRUMENTTYPE=LC-ESI-Orbitrap
INSTRUMENT=Orbitrap
COMMENT=DB#=CCMSLIB00010102956; origin=GNPS
NUM_PEAKS=10
COMPOUND_NAME=biotin
PRECURSOR_MZ=267.077
COLLISION_ENERGY=102040
PARENT_MASS=266.0697235480092
79.681198 0.0005896476246548417
83.231102 0.0005781728773464792
92.4105 0.0008913616629266234
98.984596 0.003326509744005984
131.772003 0.0006162477177978308
198.770996 0.0006910147763931661
238.457001 0.0006029327508415097
249.675003 0.0007761424880636922
265.953003 0.0006673171643709167
267.076996 1.0
END IONS

BEGIN IONS
CHARGE=1+
PRECURSORTYPE=M+Na
FORMULA=C10H16N2O3S
ONTOLOGY=
INCHIKEY=YBJHBAHKTGYVGT-ZKWXMUAHSA-N
INCHI=InChI=1S/C10H16N2O3S/c13-8(14)4-2-1-3-7-9-6(5-16-7)11-10(15)12-9/h6-7,9H,1-5H2,(H,13,14)(H2,11,12,15)/t6-,7-,9-/m0/s1
SMILES=O=C(O)CCCC[C@@H]1SC[C@@H]2N=C(O)N[C@H]12
IONMODE=positive
INSTRUMENTTYPE=LC-ESI-Orbitrap
INSTRUMENT=Orbitrap
COMMENT=DB#=CCMSLIB00010126505; origin=GNPS
NUM_PEAKS=16
COMPOUND_NAME=biotin
PRECURSOR_MZ=267.077
COLLISION_ENERGY=102040
PARENT_MASS=266.0697235480092
62.407902 0.00022675691476254481
64.050499 0.00022069973022273426
76.823799 0.00025279297563044037
79.280602 0.0002326412952828981
82.718201 0.0002169066749871992
92.386398 0.0002565572204621096
92.663002 0.0002851526443292371
98.984703 0.012147657450076805
104.299004 0.00029955036266321043
116.579002 0.00025202253568228365
118.666 0.00026356567676331287
136.218002 0.0003337517507520481
155.046997 0.002037418363495264
211.110001 0.0005545970958141321
224.645004 0.00026753391905081925
267.076996 1.0
END IONS

BEGIN IONS
CHARGE=1+
PRECURSORTYPE=M+Na
FORMULA=C10H16N2O3S
ONTOLOGY=
INCHIKEY=YBJHBAHKTGYVGT-ZKWXMUAHSA-N
INCHI=InChI=1S/C10H16N2O3S/c13-8(14)4-2-1-3-7-9-6(5-16-7)11-10(15)12-9/h6-7,9H,1-5H2,(H,13,14)(H2,11,12,15)/t6-,7-,9-/m0/s1
SMILES=O=C(O)CCCC[C@@H]1SC[C@@H]2N=C(O)N[C@H]12
IONMODE=positive
INSTRUMENTTYPE=LC-ESI-Orbitrap
INSTRUMENT=Orbitrap
COMMENT=DB#=CCMSLIB00010126571; origin=GNPS
NUM_PEAKS=10
COMPOUND_NAME=biotin
PRECURSOR_MZ=267.077
COLLISION_ENERGY=102040
PARENT_MASS=266.0697235480092
79.681198 0.0005896476246548417
83.231102 0.0005781728773464792
92.4105 0.0008913616629266234
98.984596 0.003326509744005984
131.772003 0.0006162477177978308
198.770996 0.0006910147763931661
238.457001 0.0006029327508415097
249.675003 0.0007761424880636922
265.953003 0.0006673171643709167
267.076996 1.0
END IONS

BEGIN IONS
CHARGE=1+
PRECURSORTYPE=M+Na
FORMULA=C14H12BrN5O2S
ONTOLOGY=
INCHIKEY=LZSKSTYJGTWFCN-UHFFFAOYSA-N
INCHI=InChI=1S/C14H12BrN5O2S/c1-20-12-11(13(22)17-7-16-12)19-14(20)23-6-10(21)18-9-4-2-8(15)3-5-9/h2-5,7H,6H2,1H3,(H,18,21)(H,16,17,22)
SMILES=Cn1c(SCC(=O)Nc2ccc(Br)cc2)nc2c(O)ncnc21
IONMODE=positive
INSTRUMENTTYPE=LC-ESI-Orbitrap
INSTRUMENT=Orbitrap
COMMENT=DB#=CCMSLIB00010113917; origin=GNPS
NUM_PEAKS=13
COMPOUND_NAME=N-(4-bromophenyl)-2-(9-methyl-6-oxohydropurin-8-ylthio)acetamide
PRECURSOR_MZ=415.979
COLLISION_ENERGY=102040
PARENT_MASS=414.9717235480092
65.205948 0.0007392630803543904
107.855553 0.0008210787572315561
157.968826 0.0009569512206168493
173.043076 0.0008470844545246553
195.0336 0.0012622990146762714
198.331863 0.0008803951229675014
204.007843 0.012669741962121095
214.589996 0.000991138485597665
223.027115 0.001032046324036248
245.009689 0.0019150712366176582
409.055359 0.0008853625033493292
415.469879 0.02060294063074627
415.977814 1.0
END IONS

BEGIN IONS
CHARGE=1+
PRECURSORTYPE=M+Na
FORMULA=C15H16O5
ONTOLOGY=
INCHIKEY=QJZRVRVZRIXGMR-UHFFFAOYSA-N
INCHI=InChI=1S/C15H16O5/c1-9(2)6-7-19-15-11(18-3)8-10-4-5-12(16)20-14(10)13(15)17/h4-6,8,17H,7H2,1-3H3
SMILES=COc1cc2ccc(=O)oc2c(O)c1OCC=C(C)C
IONMODE=positive
INSTRUMENTTYPE=LC-ESI-Orbitrap
INSTRUMENT=Orbitrap
COMMENT=DB#=CCMSLIB00010110239; origin=GNPS
NUM_PEAKS=27
COMPOUND_NAME=Capensine
PRECURSOR_MZ=299.089
COLLISION_ENERGY=102040
PARENT_MASS=298.0817235480092
59.145771 0.0017126495011819415
61.51255 0.0018011666881373534
68.181213 0.001787731043688764
69.07019 0.011205327470123474
69.818382 0.002296704868682382
101.003159 0.008196533445665859
104.265457 0.0028728569159189466
105.570847 0.001858070594037261
113.601051 0.0022247846542811102
125.130638 0.0022445429549408
136.183594 0.0018983775273830289
197.97374 0.0028254369943356904
212.006271 0.003995918725415735
216.499817 0.002080153893452178
224.775314 0.001990056042443991
230.018234 0.8022549753376891
231.026001 1.0
238.978149 0.002082524889531341
240.230103 0.002152864439879838
248.028442 0.03857452554392626
249.036667 0.026627076301024823
271.044586 0.013056285075923246
272.052368 0.01666336044435628
298.099884 0.001994007702575929
299.090088 0.12666888486522074
312.464203 0.0020675085810299763
317.097534 0.003985644409072696
END IONS

BEGIN IONS
CHARGE=1+
PRECURSORTYPE=M+Na
FORMULA=C43H58N4O12
ONTOLOGY=
INCHIKEY=JQXXHWHPUNPDRT-UHFFFAOYSA-N
INCHI=InChI=1S/C43H58N4O12/c1-21-12-11-13-22(2)42(55)45-33-28(20-44-47-17-15-46(9)16-18-47)37(52)30-31(38(33)53)36(51)26(6)40-32(30)41(54)43(8,59-40)57-19-14-29(56-10)23(3)39(58-27(7)48)25(5)35(50)24(4)34(21)49/h11-14,19-21,23-25,29,34-35,39,49-53H,15-18H2,1-10H3,(H,45,55)/b12-11+,19-14+,22-13+,44-20+
SMILES=COC1C=COC2(C)Oc3c(C)c(O)c4c(O)c(c(C=NN5CCN(C)CC5)c(O)c4c3C2=O)N=C(O)C(C)=CC=CC(C)C(O)C(C)C(O)C(C)C(OC(C)=O)C1C
IONMODE=positive
INSTRUMENTTYPE=LC-ESI-Orbitrap
INSTRUMENT=Orbitrap
COMMENT=DB#=CCMSLIB00010108387; origin=GNPS
NUM_PEAKS=150
COMPOUND_NAME=Rifampicin
PRECURSOR_MZ=845.394
COLLISION_ENERGY=102040
PARENT_MASS=844.3867235480093
59.0495 0.0005279448068113822
65.038742 0.00048102754234308236
65.781799 0.00045671495561646876
67.054451 0.0028543177747513185
69.033791 0.0006591524029475696
69.070122 0.0011219957378628955
70.065407 0.005713357415519789
72.081047 0.0004765066067947451
74.407043 0.0004914759267214617
77.482727 0.0005447225009574337
79.054092 0.0006926073260052651
80.581238 0.0005288489939210496
81.070038 0.0025048996894820536
82.052658 0.000513075952119073
83.049263 0.0005527597197100332
84.08091 0.0007721757916560006
85.410843 0.0005429141267380988
87.044037 0.0022048100343068683
91.054398 0.0008182893342490405
93.06974 0.0025075117855766485
95.049026 0.002010811666665997
95.085541 0.01598713321649896
97.064796 0.0023114036480132195
97.075958 0.017137460150464773
98.083687 0.004817006594136125
99.091583 0.009212461064698405
101.107002 0.0008071376932298086
105.069817 0.0018480579869258563
107.085457 0.006708365097091612
109.025436 0.0010396142456487502
109.06424 0.004943994650427198
109.100937 0.0009368383108498837
109.304428 0.0004820321946871573
112.086792 0.0024884233910392245
119.085373 0.0012049800214834858
121.064056 0.000878367544424722
121.101349 0.002084653613955505
123.080132 0.008850384359893796
125.095337 0.0008810801057537244
133.102051 0.0005446220357230262
135.079971 0.002952673239236255
137.097183 0.0008031190838535088
138.102478 0.000860886593637818
145.06221 0.0029393113630600586
145.100983 0.000948894138978783
147.077988 0.0005624043822131527
147.548874 0.0004780135853108575
151.074814 0.007450501783659772
153.090378 0.0010817091788654903
159.115982 0.0006768342842032886
161.082199 0.0013511569375463898
161.095291 0.0008489312307433262
162.088608 0.00287350663452315
163.11116 0.0027769595442575477
175.072571 0.003154106034223281
175.111023 0.0005904341826128436
177.088333 0.0022889999007403485
179.104111 0.002125241568656133
190.083603 0.023330036734108307
191.10527 0.0009705946296108017
207.099655 0.004486475972935469
218.115128 0.0011843846484299494
233.114151 0.00443433451627798
235.094101 0.002271016623781407
235.12944 0.0036424675386781107
248.125015 0.008249903653840204
265.139923 0.005331589524771311
267.120056 0.002594213282870316
279.027435 0.0011029073433254715
293.135284 0.004159160239235854
295.044189 0.0008776642877838695
300.191406 0.0011787585953031297
301.17868 0.0005619020560411152
302.184875 0.000652521697476675
305.030029 0.0007073757154631668
306.037628 0.00243688472578818
307.044373 0.006943353280370741
308.052277 0.0009136308417017525
318.203064 0.005057620830542074
320.040344 0.007773899373217496
321.047607 0.016133109202093054
322.054321 0.008342331669495098
323.06488 0.0008805777795816869
325.081085 0.0006393607517692933
325.160828 0.0010361984276788954
350.0737 0.0007481646006326095
364.131805 0.0007762948662667079
372.213287 0.024139083266791858
374.229218 0.002516553656673323
386.114075 0.0011774525472558323
387.214294 0.0010040495526684973
397.080872 0.0008377795897240943
398.088257 0.000981243944457996
400.07959 0.0011411845976347268
402.128754 0.0008800754534096494
404.118591 0.0005517550673659583
404.240448 0.01152687866974385
405.126038 0.000799502335414839
416.098114 0.0005609978689314478
420.138916 0.009692684885166229
421.144043 0.0007019505928051622
428.112915 0.0007719748611871856
429.117523 0.0024288475070355802
430.12915 0.0005938500005826983
432.23349 0.010995718975431428
443.120789 0.0029643272064275245
444.123627 0.0009365369151466611
455.119965 0.0036115242464806025
457.115051 0.000931212257723064
458.120636 0.003068710584976911
464.260101 0.005786496106168445
471.114777 0.007296287648844268
472.125763 0.0008647042725453028
473.130951 0.0021631169620277583
506.321899 0.0006174593306684595
516.159363 0.0006257979451242816
525.213013 0.0029122862150044427
543.21875 0.004330152068197409
553.205933 0.0023529962550579223
571.217102 0.0035221101878579325
583.24231 0.0024468307839945217
585.236511 0.0007022519885083846
586.23999 0.0007699655564990357
599.243591 0.0008885145330998789
601.258972 0.0009027805963857431
629.25415 0.0006899952299106704
637.250854 0.000974110912815064
640.253967 0.0010832161573816027
653.248901 0.003649198709383413
655.263489 0.0007700660217334432
659.254639 0.0007353050506284502
669.279297 0.002453561954699824
685.272522 0.003404666328835572
687.26355 0.000635040746689771
699.334778 0.0006883877861601504
713.271118 0.005555325601796801
730.280334 0.016617753492874806
732.299133 0.0009694895120323192
735.337036 0.0006811542892828108
745.293823 0.043801737084089
747.311584 0.001845144495128039
753.345154 0.013212986698804826
759.356079 0.0008498354178529936
785.372803 0.00766348808060366
786.372009 0.0007676548561076634
813.366882 0.17016972194839863
827.381531 0.0009305090010822115
839.064331 0.001879503605295402
845.393188 1.0
851.798706 0.0010270560913478134
END IONS

BEGIN IONS
CHARGE=1+
PRECURSORTYPE=M+Na
FORMULA=C16H12O2
ONTOLOGY=
INCHIKEY=NOQJBXPAMJLUSS-UHFFFAOYSA-N
INCHI=InChI=1S/C16H12O2/c1-11-7-8-15-13(9-11)14(17)10-16(18-15)12-5-3-2-4-6-12/h2-10H,1H3
SMILES=Cc1ccc2oc(-c3ccccc3)cc(=O)c2c1
IONMODE=positive
INSTRUMENTTYPE=LC-ESI-Orbitrap
INSTRUMENT=Orbitrap
COMMENT=DB#=CCMSLIB00010104414; origin=GNPS
NUM_PEAKS=15
COMPOUND_NAME=6-Methylflavone
PRECURSOR_MZ=259.073
COLLISION_ENERGY=102040
PARENT_MASS=258.0657235480092
54.812069 0.004665119825529438
55.716049 0.00412399872098648
66.737061 0.0052595331600652625
70.374519 0.00412399872098648
89.327728 0.005327173298133132
113.870171 0.004367913158261526
119.429802 0.004285925112118653
218.373474 0.004488845526322262
224.450943 0.008721478408448047
235.959198 0.006552894587969074
241.037949 0.004779903090129459
259.072723 1.0
259.167511 0.02181906877977191
276.249634 0.004954127688183063
277.082672 0.019990735350785854
END IONS

BEGIN IONS
CHARGE=1+
PRECURSORTYPE=M+Na
FORMULA=C9H17NO5
ONTOLOGY=
INCHIKEY=GHOKWGTUZJEAQD-ZETCQYMHSA-N
INCHI=InChI=1S/C9H17NO5/c1-9(2,5-11)7(14)8(15)10-4-3-6(12)13/h7,11,14H,3-5H2,1-2H3,(H,10,15)(H,12,13)/t7-/m0/s1
SMILES=CC(C)(CO)[C@@H](O)C(O)=NCCC(=O)O
IONMODE=positive
INSTRUMENTTYPE=LC-ESI-Orbitrap
INSTRUMENT=Orbitrap
COMMENT=DB#=CCMSLIB00010103284; origin=GNPS
NUM_PEAKS=15
COMPOUND_NAME=pantothenic acid
PRECURSOR_MZ=242.1
COLLISION_ENERGY=102040
PARENT_MASS=241.09272354800925
56.447201 0.002044349401010784
65.727203 0.001968328286926779
70.206596 0.001821055630041261
73.195198 0.0024581480293412697
112.037003 0.05517877113831364
118.513 0.0021732947816447187
141.123993 0.0024422490337004258
153.052002 0.05243946130718057
154.615997 0.002446626829990733
171.061996 0.003666809236989776
186.029007 0.0019803505837436034
208.315994 0.010348710541143008
224.089005 0.05672674526868758
242.098999 1.0
242.283005 0.03896342904310915
END IONS

BEGIN IONS
CHARGE=1+
PRECURSORTYPE=M+Na
FORMULA=C9H17NO5
ONTOLOGY=
INCHIKEY=GHOKWGTUZJEAQD-ZETCQYMHSA-N
INCHI=InChI=1S/C9H17NO5/c1-9(2,5-11)7(14)8(15)10-4-3-6(12)13/h7,11,14H,3-5H2,1-2H3,(H,10,15)(H,12,13)/t7-/m0/s1
SMILES=CC(C)(CO)[C@@H](O)C(O)=NCCC(=O)O
IONMODE=positive
INSTRUMENTTYPE=LC-ESI-Orbitrap
INSTRUMENT=Orbitrap
COMMENT=DB#=CCMSLIB00010126899; origin=GNPS
NUM_PEAKS=15
COMPOUND_NAME=pantothenic acid
PRECURSOR_MZ=242.1
COLLISION_ENERGY=102040
PARENT_MASS=241.09272354800925
56.447201 0.002044349401010784
65.727203 0.001968328286926779
70.206596 0.001821055630041261
73.195198 0.0024581480293412697
112.037003 0.05517877113831364
118.513 0.0021732947816447187
141.123993 0.0024422490337004258
153.052002 0.05243946130718057
154.615997 0.002446626829990733
171.061996 0.003666809236989776
186.029007 0.0019803505837436034
208.315994 0.010348710541143008
224.089005 0.05672674526868758
242.098999 1.0
242.283005 0.03896342904310915
END IONS

BEGIN IONS
CHARGE=1+
PRECURSORTYPE=M+Na
FORMULA=C23H19NO5
ONTOLOGY=
INCHIKEY=YMTGHURFTMANKP-UHFFFAOYSA-N
INCHI=InChI=1S/C23H19NO5/c1-28-23-14-8-17(7-13-22(25)18-5-3-2-4-6-18)15-19(23)16-29-21-11-9-20(10-12-21)24(26)27/h2-15H,16H2,1H3/b13-7+
SMILES=COc1ccc(C=CC(=O)c2ccccc2)cc1COc1ccc([N+](=O)[O-])cc1
IONMODE=positive
INSTRUMENTTYPE=LC-ESI-Orbitrap
INSTRUMENT=Orbitrap
COMMENT=DB#=CCMSLIB00010110854; origin=GNPS
NUM_PEAKS=8
COMPOUND_NAME=(2E)-3-{4-methoxy-3-[(4-nitrophenoxy)methyl]phenyl}-1-phenylprop-2-en-1-one
PRECURSOR_MZ=412.116
COLLISION_ENERGY=102040
PARENT_MASS=411.1087235480092
60.53437 0.0016826247225416341
125.94252 0.001502535495049159
156.60173 0.0016116641911117634
282.121429 0.0019664668482611176
283.6138 0.0014955469578628838
366.119476 0.020082367974437007
390.620605 0.0014385635008055634
412.114594 1.0
END IONS

BEGIN IONS
CHARGE=1+
PRECURSORTYPE=M+Na
FORMULA=C11H19N3O6
ONTOLOGY=
INCHIKEY=JCMUOFQHZLPHQP-BQBZGAKWSA-N
INCHI=InChI=1S/C11H19N3O6/c1-2-7(10(18)13-5-9(16)17)14-8(15)4-3-6(12)11(19)20/h6-7H,2-5,12H2,1H3,(H,13,18)(H,14,15)(H,16,17)(H,19,20)/t6-,7-/m0/s1
SMILES=CC[C@H](N=C(O)CC[C@H](N)C(=O)O)C(O)=NCC(=O)O
IONMODE=positive
INSTRUMENTTYPE=LC-ESI-Orbitrap
INSTRUMENT=Orbitrap
COMMENT=DB#=CCMSLIB00010103233; origin=GNPS
NUM_PEAKS=22
COMPOUND_NAME=Ophthalmic acid
PRECURSOR_MZ=312.117
COLLISION_ENERGY=102040
PARENT_MASS=311.10972354800924
58.824799 0.002268311474247233
66.757797 0.0034796657585636995
92.394203 0.004359181868432304
98.021202 0.014017311762033581
104.458 0.0022872643011314113
136.229004 0.0027069594157526026
144.992996 0.003876810917997336
146.988007 0.009905441468162609
152.031998 0.01963905425183772
183.074005 0.1337121149829795
188.070999 0.009524700291075335
191.988007 0.0027740548274104164
204.378006 0.003268451135728264
215.164993 0.0024160486915999276
219.074005 0.02505180154253482
237.084 0.02260130079429032
267.093994 0.11214047262740713
294.105011 0.07009899850351099
295.088989 0.04429196336068674
302.992004 0.014572206236946833
312.071991 0.13684816392310348
312.11499 1.0
END IONS

BEGIN IONS
CHARGE=1+
PRECURSORTYPE=M+Na
FORMULA=C11H19N3O6
ONTOLOGY=
INCHIKEY=JCMUOFQHZLPHQP-BQBZGAKWSA-N
INCHI=InChI=1S/C11H19N3O6/c1-2-7(10(18)13-5-9(16)17)14-8(15)4-3-6(12)11(19)20/h6-7H,2-5,12H2,1H3,(H,13,18)(H,14,15)(H,16,17)(H,19,20)/t6-,7-/m0/s1
SMILES=CC[C@H](N=C(O)CC[C@H](N)C(=O)O)C(O)=NCC(=O)O
IONMODE=positive
INSTRUMENTTYPE=LC-ESI-Orbitrap
INSTRUMENT=Orbitrap
COMMENT=DB#=CCMSLIB00010126848; origin=GNPS
NUM_PEAKS=22
COMPOUND_NAME=Ophthalmic acid
PRECURSOR_MZ=312.117
COLLISION_ENERGY=102040
PARENT_MASS=311.10972354800924
58.824799 0.002268311474247233
66.757797 0.0034796657585636995
92.394203 0.004359181868432304
98.021202 0.014017311762033581
104.458 0.0022872643011314113
136.229004 0.0027069594157526026
144.992996 0.003876810917997336
146.988007 0.009905441468162609
152.031998 0.01963905425183772
183.074005 0.1337121149829795
188.070999 0.009524700291075335
191.988007 0.0027740548274104164
204.378006 0.003268451135728264
215.164993 0.0024160486915999276
219.074005 0.02505180154253482
237.084 0.02260130079429032
267.093994 0.11214047262740713
294.105011 0.07009899850351099
295.088989 0.04429196336068674
302.992004 0.014572206236946833
312.071991 0.13684816392310348
312.11499 1.0
END IONS

BEGIN IONS
CHARGE=1+
PRECURSORTYPE=M+Na
FORMULA=C16H13N3O2S
ONTOLOGY=
INCHIKEY=KDRIURZVJMYZNJ-UHFFFAOYSA-N
INCHI=InChI=1S/C16H13N3O2S/c20-14(17-11-6-2-1-3-7-11)10-22-16-18-13-9-5-4-8-12(13)15(21)19-16/h1-9H,10H2,(H,17,20)(H,18,19,21)
SMILES=OC(CSc1nc(O)c2ccccc2n1)=Nc1ccccc1
IONMODE=positive
INSTRUMENTTYPE=LC-ESI-Orbitrap
INSTRUMENT=Orbitrap
COMMENT=DB#=CCMSLIB00010109129; origin=GNPS
NUM_PEAKS=21
COMPOUND_NAME=2-(4-hydroxyquinazolin-2-ylthio)-N-phenylacetamide
PRECURSOR_MZ=334.062
COLLISION_ENERGY=102040
PARENT_MASS=333.05472354800924
66.733078 0.0011812951053788304
104.275833 0.0013891380929918755
115.992401 0.0009421944809567922
142.974228 0.0010765617249019444
167.021225 0.0012628897157503577
175.698959 0.001226760758919184
187.737717 0.0012543649057115416
188.013611 0.0017686951113867918
215.023544 0.0017695069980571553
241.004059 0.03205693923596593
260.079926 0.001597792967275284
290.100159 0.0019391913121631177
291.107056 0.001737031531242617
301.092743 0.001759358414677612
302.100159 0.008149718397108385
306.131165 0.0018900721686061286
318.096313 0.0048019037118646685
319.10376 0.0011735821820103775
334.061676 1.0
334.125549 0.07030979159681058
356.81604 0.0011350175651681134
END IONS

BEGIN IONS
CHARGE=1+
PRECURSORTYPE=M+Na
FORMULA=C17H19N5O2S
ONTOLOGY=
INCHIKEY=URUVXKGMWRRULO-UHFFFAOYSA-N
INCHI=InChI=1S/C17H19N5O2S/c1-3-11-6-5-7-12(8-11)20-13(23)9-25-17-21-14-15(22(17)4-2)18-10-19-16(14)24/h5-8,10H,3-4,9H2,1-2H3,(H,20,23)(H,18,19,24)
SMILES=CCc1cccc(N=C(O)CSc2nc3c(O)ncnc3n2CC)c1
IONMODE=positive
INSTRUMENTTYPE=LC-ESI-Orbitrap
INSTRUMENT=Orbitrap
COMMENT=DB#=CCMSLIB00010109531; origin=GNPS
NUM_PEAKS=55
COMPOUND_NAME=2-(9-ethyl-6-oxohydropurin-8-ylthio)-N-(3-ethylphenyl)acetamide
PRECURSOR_MZ=380.115
COLLISION_ENERGY=102040
PARENT_MASS=379.10772354800923
73.95105 0.0002511783583370045
95.036507 0.0010867278905639388
98.297768 0.0002063198897121123
118.64753 0.0002166867496319038
130.06488 0.0004036293310827236
131.068054 0.0009068095833578376
144.080475 0.0013377609190889836
145.084351 0.00045895154616871375
146.059937 0.002235075621398788
147.063004 0.0015114784876514712
157.963699 0.00021886669681129921
184.072784 0.0010209419290168507
187.058823 0.006129769252106628
188.070679 0.0020183404284962307
189.07457 0.002455589389412297
190.049255 0.0002814069592246209
191.053741 0.0003374558233704096
192.065521 0.0031000786621828867
193.069321 0.002409326065938461
216.044708 0.0010943819273271493
217.016006 0.0005134986689242523
218.023056 0.027790935508345757
219.030212 0.000345303633216233
227.053619 0.0016585038140840282
231.030792 0.002098998474133861
251.073074 0.0003820236323713824
259.025574 0.01529421875101428
273.097229 0.0005144675343373169
276.084412 0.0002770955081364833
287.077789 0.0004616159260546415
288.08313 0.0015324544238443205
289.096222 0.00028402289583989536
290.100342 0.001904886288626363
291.108826 0.0025181296518256187
300.087158 0.00030742099556540614
301.093048 0.0033257274168856385
302.100342 0.011636848703236622
302.139801 0.00037160832918093766
303.075989 0.00028891566617587173
304.078857 0.0009239585011690815
305.239838 0.00023494986266817203
306.131073 0.0035433345886599537
317.089172 0.0002991856395543568
318.09436 0.003629757383505318
319.101807 0.0020622784749787116
332.108276 0.00025757287006323106
333.121582 0.004590629656912162
334.126038 0.080314970394864
336.139496 0.0005181976661776158
365.092712 0.000549879565184829
378.166962 0.00031090891105243877
378.209747 0.0003212757709722303
380.115143 1.0
382.025635 0.00043003091358873464
382.073578 0.0002863966161019037
END IONS

BEGIN IONS
CHARGE=1+
PRECURSORTYPE=M+Na
FORMULA=C26H44O5
ONTOLOGY=
INCHIKEY=FPDXMWHJGOCDQJ-UHFFFAOYSA-N
INCHI=InChI=1S/C26H44O5/c1-5-31-23(30)9-6-15(2)18-7-8-19-24-20(14-22(29)26(18,19)4)25(3)11-10-17(27)12-16(25)13-21(24)28/h15-22,24,27-29H,5-14H2,1-4H3/t15-,16+,17-,18-,19+,20+,21-,22+,24+,25+,26-/m1/s1
SMILES=CCOC(=O)CCC(C)C1CCC2C3C(O)CC4CC(O)CCC4(C)C3CC(O)C12C
IONMODE=positive
INSTRUMENTTYPE=LC-ESI-Orbitrap
INSTRUMENT=Orbitrap
COMMENT=DB#=CCMSLIB00010113596; origin=GNPS
NUM_PEAKS=63
COMPOUND_NAME="ethyl 4-((1S,2S,7S,11S,16S,5R,9R,10R,14R,15R)-5,9,16-trihydroxy-2,15-dimethylt etracyclo[8.7.0.0<2,7>.0<11,15>]heptadec-14-yl)pentanoate "
PRECURSOR_MZ=459.308
COLLISION_ENERGY=102040
PARENT_MASS=458.3007235480092
82.385231 0.00020006531167737076
89.287552 0.00016279293263738557
91.054321 0.006043144660143784
91.060387 0.0002163240449211503
92.362877 0.0002456334955960568
93.057121 0.0007988905787122154
95.550247 0.0003210757148647143
95.555946 0.0003065857960364563
107.048927 0.0007585113522117568
118.63549 0.0002732655097219262
119.050926 0.00018955685703165215
119.060432 0.00039615894965789694
119.085251 0.0007661414040632135
125.014961 0.0019583451645913794
129.069458 0.0007596829469998976
131.049484 0.0015609199787836258
131.059311 0.0003329450470220058
132.067795 0.0003506592991390743
132.080307 0.0004709386793945417
133.075851 0.015456876147901812
137.014557 0.0002775863774085509
145.064362 0.00298798117365314
147.080032 0.005884907566849697
149.107178 0.1236130145265744
151.031052 0.00031622942444580366
157.063873 0.0013342604444640312
157.076706 0.002771441738046705
165.01001 0.017379756909811507
171.043747 0.0018869562064003564
171.078522 0.0002998662593546133
173.057724 0.00021854322167863126
175.086517 0.0009586256163176015
183.091965 0.0011841984067250768
185.070633 0.027028238136568242
199.075562 0.00035605385675689194
211.085861 0.0032818328112959334
243.058197 0.0016703906628320684
255.067429 0.0008930619971149658
267.056396 0.0057046190362757595
269.07309 0.00042122912002696847
281.08371 0.00036355663229431653
285.068573 0.0003052053375534939
288.12265 0.0003278344134893364
297.078705 0.005442110006837153
309.026215 0.00034807787441088687
309.067169 0.010196298063321833
309.099579 0.000419554946973163
311.082764 0.026459818854606118
321.598541 0.0011712619116270556
322.088043 0.00024382878273298772
323.093811 1.0
324.096252 0.0003316135409675172
324.599304 0.001399576038029066
325.107666 0.0013767576793697915
353.135895 0.0005720319711834937
365.143616 0.0013529243736934923
399.124542 0.002107144229675709
417.135437 0.02077755802416198
441.168304 0.0008078292921515394
456.647705 0.00045129570159560377
459.182526 0.42748604973274323
459.304688 0.03362601381132068
461.733032 0.0003489492276377213
END IONS

BEGIN IONS
CHARGE=1+
PRECURSORTYPE=M+Na
FORMULA=C9H14N4O3
ONTOLOGY=
INCHIKEY=CQOVPNPJLQNMDC-ZETCQYMHSA-N
INCHI=InChI=1S/C9H14N4O3/c10-2-1-8(14)13-7(9(15)16)3-6-4-11-5-12-6/h4-5,7H,1-3,10H2,(H,11,12)(H,13,14)(H,15,16)/t7-/m0/s1
SMILES=NCCC(O)=N[C@@H](Cc1cnc[nH]1)C(=O)O
IONMODE=positive
INSTRUMENTTYPE=LC-ESI-Orbitrap
INSTRUMENT=Orbitrap
COMMENT=DB#=CCMSLIB00010126940; origin=GNPS
NUM_PEAKS=27
COMPOUND_NAME=L-Carnosine
PRECURSOR_MZ=249.096
COLLISION_ENERGY=102040
PARENT_MASS=248.08872354800926
50.2262 0.0019464680005648713
57.385502 0.0018433057726706904
59.262402 0.0020467483341527455
65.981903 0.002069976004477128
73.952698 0.002158106385137609
80.661102 0.0017441394295846105
92.380699 0.0020623868489596953
104.288002 0.002512714915740034
109.096001 0.00221977144889484
110.070999 0.008931294710608073
112.037003 0.515497871272111
118.654999 0.002187825054133498
132.052994 0.03562779330156804
133.037003 0.0034202120537255355
139.199997 0.002028311563124366
160.048004 0.08664131719614632
178.059006 0.11124041549421007
178.076004 0.00388039377700137
180.149002 0.0022422147033902737
187.095001 0.001981772455725598
200.445999 0.002287775685429459
203.089996 0.012116959941734572
204.141998 0.0022118266697699718
220.686005 0.002093261263951798
231.085007 0.004762367203991757
232.069 0.10625333430965407
249.095993 1.0
END IONS

BEGIN IONS
CHARGE=1+
PRECURSORTYPE=M+Na
FORMULA=C26H29N3O4
ONTOLOGY=
INCHIKEY=RIOFFQYFQSEETA-UHFFFAOYSA-N
INCHI=InChI=1S/C26H29N3O4/c1-2-32-21-7-8-24-22(16-21)20(15-26(31)33-24)17-27-11-13-28(14-12-27)18-25(30)29-10-9-19-5-3-4-6-23(19)29/h3-8,15-16H,2,9-14,17-18H2,1H3
SMILES=CCOc1ccc2oc(=O)cc(CN3CCN(CC(=O)N4CCc5ccccc54)CC3)c2c1
IONMODE=positive
INSTRUMENTTYPE=LC-ESI-Orbitrap
INSTRUMENT=Orbitrap
COMMENT=DB#=CCMSLIB00010107541; origin=GNPS
NUM_PEAKS=9
COMPOUND_NAME=6-ethoxy-4-{[4-(2-indolinyl-2-oxoethyl)piperazinyl]methyl}chromen-2-one
PRECURSOR_MZ=470.205
COLLISION_ENERGY=102040
PARENT_MASS=469.1977235480092
89.430771 0.0006589167671308245
90.703217 0.0006991192866909939
118.653481 0.0014783907664673566
131.203491 0.0008298406867702863
132.928268 0.0007375518840063757
266.126465 0.006609901046175755
371.48291 0.0008897651970580858
398.462372 0.0008197268453715016
470.204803 1.0
END IONS

BEGIN IONS
CHARGE=1+
PRECURSORTYPE=M+Na
FORMULA=C15H10O5
ONTOLOGY=
INCHIKEY=PVFGJHYLIHMCQD-UHFFFAOYSA-N
INCHI=InChI=1S/C15H10O5/c16-9-2-3-10-12(18)7-14(20-15(10)6-9)8-1-4-11(17)13(19)5-8/h1-7,16-17,19H
SMILES=O=c1cc(-c2ccc(O)c(O)c2)oc2cc(O)ccc12
IONMODE=positive
INSTRUMENTTYPE=LC-ESI-Orbitrap
INSTRUMENT=Orbitrap
COMMENT=DB#=CCMSLIB00010108892; origin=GNPS
NUM_PEAKS=19
COMPOUND_NAME="7,3',4'-Trihydroxyflavone "
PRECURSOR_MZ=293.042
COLLISION_ENERGY=102040
PARENT_MASS=292.0347235480092
51.704109 0.00679783881395221
52.071819 0.006106189824367459
57.68882 0.005851524087616589
77.686447 0.005889145162363877
80.32132 0.005521616201371144
81.891533 0.006103295895540745
82.408524 0.00790042569693041
113.302567 0.007466336372923244
118.668053 0.0071566859884648
130.131592 0.008693362195450164
132.461029 0.007382412436948526
184.062286 0.006236416621569609
233.069275 0.008247697156136142
271.129456 0.008100106785973706
293.041779 1.0
293.13916 0.27595347720018176
293.172455 0.030201041235591853
293.643677 0.014232341969781594
311.052032 0.029616467612595537
END IONS

BEGIN IONS
CHARGE=1+
PRECURSORTYPE=M+Na
FORMULA=C19H19N3O4S
ONTOLOGY=
INCHIKEY=OWBQCPZBRPKYKE-UHFFFAOYSA-N
INCHI=InChI=1S/C19H19N3O4S/c1-24-13-7-5-12(6-8-13)21-19-22-18(20)17(27-19)16(23)11-4-9-14(25-2)15(10-11)26-3/h4-10H,20H2,1-3H3,(H,21,22)
SMILES=COc1ccc(N=c2[nH]c(N)c(C(=O)c3ccc(OC)c(OC)c3)s2)cc1
IONMODE=positive
INSTRUMENTTYPE=LC-ESI-Orbitrap
INSTRUMENT=Orbitrap
COMMENT=DB#=CCMSLIB00010105933; origin=GNPS
NUM_PEAKS=14
COMPOUND_NAME="4-amino-2-[(4-methoxyphenyl)amino](1,3-thiazol-5-yl) 3,4-dimethoxyphenyl keton e "
PRECURSOR_MZ=408.099
COLLISION_ENERGY=102040
PARENT_MASS=407.0917235480092
74.833199 0.0018819087808218486
76.413147 0.0017108917635462436
77.000954 0.0015817270121017992
104.280357 0.0021402382837107372
143.025864 0.0016430622292681555
219.903198 0.001988704217770328
222.988556 0.001858817875535691
281.562958 0.0017729485715027922
393.079559 0.002097664427089384
399.772308 0.002234766677225945
400.09967 0.0018631474202768456
408.098969 1.0
411.628571 0.002186420094283053
426.108582 0.034617596568691476
END IONS

BEGIN IONS
CHARGE=1+
PRECURSORTYPE=M+Na
FORMULA=C18H17N3O4S
ONTOLOGY=
INCHIKEY=HKSLSAQTOBXZMV-UHFFFAOYSA-N
INCHI=InChI=1S/C18H17N3O4S/c1-24-14-8-7-11(9-15(14)25-2)19-16(22)10-26-18-20-13-6-4-3-5-12(13)17(23)21-18/h3-9H,10H2,1-2H3,(H,19,22)(H,20,21,23)
SMILES=COc1ccc(N=C(O)CSc2nc(O)c3ccccc3n2)cc1OC
IONMODE=positive
INSTRUMENTTYPE=LC-ESI-Orbitrap
INSTRUMENT=Orbitrap
COMMENT=DB#=CCMSLIB00010110786; origin=GNPS
NUM_PEAKS=12
COMPOUND_NAME="N-(3,4-dimethoxyphenyl)-2-(4-hydroxyquinazolin-2-ylthio)acetamide "
PRECURSOR_MZ=394.083
COLLISION_ENERGY=102040
PARENT_MASS=393.07572354800925
56.086288 0.0005966722801532264
59.640518 0.0006250405889542246
69.77124 0.0006069880288081348
130.817535 0.0006857628367183447
173.552155 0.0006381697236059262
213.009109 0.003002586205077552
215.024887 0.005941402327561125
235.839294 0.0007148344920185412
241.003937 0.043447119948477525
320.100067 0.0039978215014431495
379.060272 0.0010383738816497601
394.082794 1.0
END IONS

BEGIN IONS
CHARGE=1+
PRECURSORTYPE=M+Na
FORMULA=C20H20O7S
ONTOLOGY=
INCHIKEY=IKYNGNXORONYOJ-UHFFFAOYSA-N
INCHI=InChI=1S/C20H20O7S/c1-23-16-12-9-27-20(22)15(12)13(17(24-2)18(16)25-3)10-28-14-8-6-5-7-11(14)19(21)26-4/h5-8H,9-10H2,1-4H3
SMILES=COC(=O)c1ccccc1SCc1c(OC)c(OC)c(OC)c2c1C(=O)OC2
IONMODE=positive
INSTRUMENTTYPE=LC-ESI-Orbitrap
INSTRUMENT=Orbitrap
COMMENT=DB#=CCMSLIB00010107993; origin=GNPS
NUM_PEAKS=14
COMPOUND_NAME="methyl 2-[(5,6,7-trimethoxy-3-oxohydroisobenzofuran-4-yl)methylthio]benzoate "
PRECURSOR_MZ=427.082
COLLISION_ENERGY=102040
PARENT_MASS=426.0747235480092
65.925957 0.0005807358368448594
85.489777 0.0006573353025420694
126.275047 0.000587406015037594
160.754272 0.0007044568839681621
163.190735 0.0006644358148117546
190.006302 0.009332870293866535
229.047119 0.003973274532485058
237.076828 0.0014676543694400837
245.042419 0.006674051199427139
260.065308 0.004167140034151313
292.055542 0.0008273172629375637
395.055054 0.0037712326833567434
412.057495 0.0008385059489382798
427.081757 1.0
END IONS

BEGIN IONS
CHARGE=1+
PRECURSORTYPE=M+Na
FORMULA=C20H34O5
ONTOLOGY=
INCHIKEY=GMVPRGQOIOIIMI-UHFFFAOYSA-N
INCHI=InChI=1S/C20H34O5/c1-2-3-6-9-15(21)12-13-17-16(18(22)14-19(17)23)10-7-4-5-8-11-20(24)25/h12-13,15-17,19,21,23H,2-11,14H2,1H3,(H,24,25)/b13-12+/t15-,16+,17+,19+/m0/s1
SMILES=CCCCCC(O)C=CC1C(O)CC(=O)C1CCCCCCC(=O)O
IONMODE=positive
INSTRUMENTTYPE=LC-ESI-Orbitrap
INSTRUMENT=Orbitrap
COMMENT=DB#=CCMSLIB00010109975; origin=GNPS
NUM_PEAKS=20
COMPOUND_NAME=alprostadil
PRECURSOR_MZ=377.23
COLLISION_ENERGY=102040
PARENT_MASS=376.22272354800924
55.03986 0.0003708956264866538
59.940319 0.0003474952715032687
66.74543 0.0004023561037420938
67.054657 0.0006699001623854634
76.343826 0.00037583570142759063
86.120293 0.0003723256481800829
104.292801 0.0004373266342450415
110.164749 0.0003870158710307635
118.208397 0.0003867558670865037
174.961533 0.0004063861648781212
301.218842 0.0007352911543668118
319.224945 0.0007714317026189287
356.210602 0.0033991615652809453
356.712189 0.003587144416980806
359.218201 0.00734810147069931
375.183868 0.0014868325552498632
377.229553 1.0
379.122894 0.00046917711741687124
393.196136 0.0031166672798426352
395.226288 0.000896623601780039
END IONS

BEGIN IONS
CHARGE=1+
PRECURSORTYPE=M+Na
FORMULA=C22H20ClNO6
ONTOLOGY=
INCHIKEY=IQQCKAZHPZJGRN-UHFFFAOYSA-N
INCHI=InChI=1S/C22H20ClNO6/c1-3-29-20(25)12-18(15-6-4-5-7-17(15)23)24-21(26)16-11-13-10-14(28-2)8-9-19(13)30-22(16)27/h4-11,18H,3,12H2,1-2H3,(H,24,26)
SMILES=CCOC(=O)CC(N=C(O)c1cc2cc(OC)ccc2oc1=O)c1ccccc1Cl
IONMODE=positive
INSTRUMENTTYPE=LC-ESI-Orbitrap
INSTRUMENT=Orbitrap
COMMENT=DB#=CCMSLIB00010107845; origin=GNPS
NUM_PEAKS=9
COMPOUND_NAME=ethyl 3-(2-chlorophenyl)-3-[(6-methoxy-2-oxochromen-3-yl)carbonylamino]propano ate
PRECURSOR_MZ=452.087
COLLISION_ENERGY=102040
PARENT_MASS=451.0797235480092
73.962982 0.0007036332696738363
104.303429 0.0008324220874704613
216.345352 0.0010222444368742551
283.438507 0.0008103747324405588
337.03833 0.0007988133145590247
354.112427 0.0008305399961874208
381.354919 0.0007832188439281181
437.067535 0.0009587910736174628
452.087036 1.0
END IONS

BEGIN IONS
CHARGE=1+
PRECURSORTYPE=M+Na
FORMULA=C13H15NO3
ONTOLOGY=
INCHIKEY=GREBWDHJEBOBJM-UHFFFAOYSA-N
INCHI=InChI=1S/C13H15NO3/c1-8-13(9(2)16)11-7-10(17)3-4-12(11)14(8)5-6-15/h3-4,7,15,17H,5-6H2,1-2H3
SMILES=CC(=O)c1c(C)n(CCO)c2ccc(O)cc12
IONMODE=positive
INSTRUMENTTYPE=LC-ESI-Orbitrap
INSTRUMENT=Orbitrap
COMMENT=DB#=CCMSLIB00010107689; origin=GNPS
NUM_PEAKS=15
COMPOUND_NAME=3-acetyl-5-hydroxy-1-(2-hydroxyethyl)-2-methylindole
PRECURSOR_MZ=256.094
COLLISION_ENERGY=102040
PARENT_MASS=255.08672354800925
67.322617 0.003395049472783652
71.253807 0.003766862440031622
82.40889 0.005107916006367748
84.960167 0.007086105385512289
140.715378 0.0040231606990083785
158.9272 0.006486872836355366
199.623657 0.004169359001664134
210.684433 0.004546586720862317
223.808868 0.004727078452536089
232.927063 0.03737261796037124
250.938263 0.017467989791387657
256.09433 1.0
256.263489 0.02399096097407778
273.962555 0.004187408174831511
274.104309 0.041908375177333125
END IONS

BEGIN IONS
CHARGE=1+
PRECURSORTYPE=M+Na
FORMULA=C21H23F3N2O3
ONTOLOGY=
INCHIKEY=IJLCQLHEYNFARK-UHFFFAOYSA-N
INCHI=InChI=1S/C21H23F3N2O3/c1-3-18(27)20-17(5-4-6-19(20)28)25-10-9-14-12(2)26-16-8-7-13(11-15(14)16)29-21(22,23)24/h7-8,11,25-26H,3-6,9-10H2,1-2H3
SMILES=CCC(=O)C1=C(NCCc2c(C)[nH]c3ccc(OC(F)(F)F)cc23)CCCC1=O
IONMODE=positive
INSTRUMENTTYPE=LC-ESI-Orbitrap
INSTRUMENT=Orbitrap
COMMENT=DB#=CCMSLIB00010103877; origin=GNPS
NUM_PEAKS=13
COMPOUND_NAME=3-({2-[2-methyl-5-(trifluoromethoxy)indol-3-yl]ethyl}amino)-2-propanoylcyclohe x-2-en-1-one
PRECURSOR_MZ=431.155
COLLISION_ENERGY=102040
PARENT_MASS=430.1477235480092
62.002361 0.00044667383466908116
65.076492 0.0004748212125713558
70.768463 0.00046745278903672895
71.54512 0.0004083580322890214
90.976448 0.0005216843862515827
104.298759 0.0004686317368022692
210.079239 0.000874337136618825
226.95015 0.0007571792024182577
307.057434 0.0005103370140082574
375.127106 0.0007660213106598099
389.962036 0.0008876002989811533
407.970703 0.003130548422921574
431.154449 1.0
END IONS

BEGIN IONS
CHARGE=1+
PRECURSORTYPE=M+Na
FORMULA=C23H21N5O2S
ONTOLOGY=
INCHIKEY=DFLVMUQOXCEBDN-UHFFFAOYSA-N
INCHI=InChI=1S/C23H21N5O2S/c1-15-8-10-17(11-9-15)28-21-20(22(30)25-14-24-21)26-23(28)31-13-19(29)27-12-4-6-16-5-2-3-7-18(16)27/h2-3,5,7-11,14H,4,6,12-13H2,1H3,(H,24,25,30)
SMILES=Cc1ccc(-n2c(SCC(=O)N3CCCc4ccccc43)nc3c(O)ncnc32)cc1
IONMODE=positive
INSTRUMENTTYPE=LC-ESI-Orbitrap
INSTRUMENT=Orbitrap
COMMENT=DB#=CCMSLIB00010110802; origin=GNPS
NUM_PEAKS=33
COMPOUND_NAME="9-(4-methylphenyl)-8-(2-oxo-2-(1,2,3,4-tetrahydroquinolyl)ethylthio)hydropurin -6-one "
PRECURSOR_MZ=454.131
COLLISION_ENERGY=102040
PARENT_MASS=453.1237235480092
55.687099 0.00030422405160911566
55.98732 0.000327802519469677
82.380836 0.0004151399903089848
85.659729 0.0003320413451524745
92.324669 0.0003242701647340124
104.263489 0.00048640524710101855
109.173843 0.0003528822380928958
116.244629 0.0003130549384482772
118.06498 0.001955511581663935
132.080612 0.0017916986307974882
146.059769 0.0019080897193376376
154.061981 0.000512014818934587
174.091171 0.0021935922908477307
196.0728 0.0023746254710505428
243.111618 0.0012805669005468174
249.074387 0.006197163148250014
253.560989 0.0014448213957552222
264.073242 0.0003810527671098212
279.030243 0.028239674860876002
280.038147 0.03745320402677843
281.045715 0.005109286198533702
289.066986 0.0021568558015968185
293.046204 0.005295706219708402
298.047546 0.00041045962028422915
321.040588 0.04194892020772718
376.712616 0.0003059019201085563
434.109924 0.013349298399286958
443.116333 0.001351390612996893
451.642303 0.0007769414241094337
453.124268 0.00042609028998954513
454.12973 1.0
456.635651 0.0007628120051667753
472.699097 0.0003073148620028222
END IONS

BEGIN IONS
CHARGE=1+
PRECURSORTYPE=M+Na
FORMULA=C27H28ClNO6
ONTOLOGY=
INCHIKEY=SVEPZXBGWWNPEV-UHFFFAOYSA-N
INCHI=InChI=1S/C27H28ClNO6/c1-15-24(27(32)35-11-10-33-2)25(17-6-9-21(30)23(14-17)34-3)26-20(29-15)12-18(13-22(26)31)16-4-7-19(28)8-5-16/h4-9,14,18,25,29-30H,10-13H2,1-3H3
SMILES=COCCOC(=O)C1=C(C)NC2=C(C(=O)CC(c3ccc(Cl)cc3)C2)C1c1ccc(O)c(OC)c1
IONMODE=positive
INSTRUMENTTYPE=LC-ESI-Orbitrap
INSTRUMENT=Orbitrap
COMMENT=DB#=CCMSLIB00010110946; origin=GNPS
NUM_PEAKS=9
COMPOUND_NAME="2-methoxyethyl 7-(4-chlorophenyl)-4-(4-hydroxy-3-methoxyphenyl)-2-methyl-5-oxo -1,4,6,7,8-pentahydroquinoline-3-carboxylate "
PRECURSOR_MZ=520.15
COLLISION_ENERGY=102040
PARENT_MASS=519.1427235480093
64.28904 0.0003958617382746091
66.742157 0.0004410585509122613
127.564537 0.00047105988343897873
209.898071 0.0007718524640964573
231.160004 0.00045781254180380477
291.897125 0.0005118409155315729
374.110321 0.00047729392656141353
517.077576 0.0006210665460725658
520.148865 1.0
END IONS

BEGIN IONS
CHARGE=1+
PRECURSORTYPE=M+Na
FORMULA=C19H18F2N2O2
ONTOLOGY=
INCHIKEY=XFDRWJXKVPEHHA-UHFFFAOYSA-N
INCHI=InChI=1S/C19H18F2N2O2/c1-12-14(15-4-2-3-5-17(15)23-12)8-9-22-19(24)11-25-18-7-6-13(20)10-16(18)21/h2-7,10,23H,8-9,11H2,1H3,(H,22,24)
SMILES=Cc1[nH]c2ccccc2c1CCN=C(O)COc1ccc(F)cc1F
IONMODE=positive
INSTRUMENTTYPE=LC-ESI-Orbitrap
INSTRUMENT=Orbitrap
COMMENT=DB#=CCMSLIB00010106976; origin=GNPS
NUM_PEAKS=13
COMPOUND_NAME="2-(2,4-difluorophenoxy)-N-[2-(2-methylindol-3-yl)ethyl]acetamide "
PRECURSOR_MZ=367.123
COLLISION_ENERGY=102040
PARENT_MASS=366.1157235480092
69.790169 0.0005598381642944842
82.026299 0.0006355300556194485
82.395264 0.0006131848430208553
104.278221 0.0006113730690263748
149.613754 0.0006196267061123416
197.106567 0.0007291383786676094
209.375839 0.0010391530399453891
232.669769 0.0006355300556194485
238.106857 0.002898033158282414
258.276123 0.0005562146163055231
365.311584 0.0006196267061123416
367.12207 1.0
368.949188 0.0007532953652606831
END IONS

BEGIN IONS
CHARGE=1+
PRECURSORTYPE=M+Na
FORMULA=C20H8I4O5
ONTOLOGY=
INCHIKEY=LAINPTZBIXYTIZ-UHFFFAOYSA-N
INCHI=InChI=1S/C20H8I4O5/c21-11-5-9-13(7-3-1-2-4-8(7)20(27)28)10-6-12(22)17(26)15(24)19(10)29-18(9)14(23)16(11)25/h1-6,25H,(H,27,28)
SMILES=O=C(O)c1ccccc1-c1c2cc(I)c(=O)c(I)c-2oc2c(I)c(O)c(I)cc12
IONMODE=positive
INSTRUMENTTYPE=LC-ESI-Orbitrap
INSTRUMENT=Orbitrap
COMMENT=DB#=CCMSLIB00010111597; origin=GNPS
NUM_PEAKS=15
COMPOUND_NAME=Erythrosin(E)
PRECURSOR_MZ=858.644
COLLISION_ENERGY=102040
PARENT_MASS=857.6367235480093
60.144859 0.023793276327883462
74.087097 0.025032727070161267
82.385963 0.028388992563295547
92.363113 0.03097234214411052
108.0494 0.026557669275548004
110.768143 0.025471409074450602
115.99527 0.022275297328914017
118.635719 0.02822187560928056
133.73851 0.02416928947441718
135.279205 0.025875275046653483
256.044128 0.02530429212043562
437.194214 0.03189844859761023
573.252258 0.02713561540818316
702.799927 0.025882238253070775
858.645142 1.0
END IONS

BEGIN IONS
CHARGE=1+
PRECURSORTYPE=M+Na
FORMULA=C19H19NO2
ONTOLOGY=
INCHIKEY=WCOCVJTYTQHQIG-UHFFFAOYSA-N
INCHI=InChI=1S/C19H19NO2/c1-2-3-11-16-18(21)15-12-7-8-13-17(15)20(19(16)22)14-9-5-4-6-10-14/h4-10,12-13,21H,2-3,11H2,1H3
SMILES=CCCCc1c(O)c2ccccc2n(-c2ccccc2)c1=O
IONMODE=positive
INSTRUMENTTYPE=LC-ESI-Orbitrap
INSTRUMENT=Orbitrap
COMMENT=DB#=CCMSLIB00010103803; origin=GNPS
NUM_PEAKS=5
COMPOUND_NAME=3-butyl-4-hydroxy-1-phenylhydroquinolin-2-one
PRECURSOR_MZ=316.131
COLLISION_ENERGY=102040
PARENT_MASS=315.1237235480092
66.986061 0.0008063084016400809
161.415863 0.0009889230552438085
316.130432 1.0
334.102905 0.0009698707390213724
334.139099 0.006597493577931522
END IONS

BEGIN IONS
CHARGE=1+
PRECURSORTYPE=M+Na
FORMULA=C16H18N2O6
ONTOLOGY=
INCHIKEY=XDQGAOKGLVNKPO-UHFFFAOYSA-N
INCHI=InChI=1S/C16H18N2O6/c1-16(15(22)23)10-9(13(20)18(2)14(10)21)11(17-16)7-5-4-6-8(24-3)12(7)19/h4-6,9-11,17,19H,1-3H3,(H,22,23)
SMILES=COc1cccc(C2NC(C)(C(=O)O)C3C(=O)N(C)C(=O)C23)c1O
IONMODE=positive
INSTRUMENTTYPE=LC-ESI-Orbitrap
INSTRUMENT=Orbitrap
COMMENT=DB#=CCMSLIB00010112897; origin=GNPS
NUM_PEAKS=22
COMPOUND_NAME="3-(2-hydroxy-3-methoxyphenyl)-1,5-dimethyl-4,6-dioxo-1,2,3,5,3a,6a-hexahydro-2 ,5-diazapentalenecarboxylic acid "
PRECURSOR_MZ=357.106
COLLISION_ENERGY=102040
PARENT_MASS=356.0987235480092
57.51469 0.0060482847609404766
67.089073 0.007234432479075446
77.19928 0.005682288730795226
82.402473 0.0067348612554465285
83.400131 0.0058986805442387685
92.385208 0.006745547270925222
103.971573 0.005562071056659926
104.291023 0.007039412696589291
117.271347 0.006940567053411377
137.068344 0.007306563083556626
142.58017 0.0061177438615519835
157.986008 0.008303034026944787
159.041382 0.1543568220858568
168.981232 0.006577242527135801
196.036026 0.007774076260749464
199.03627 0.02873736712607628
230.079346 0.01477074489542398
246.073715 0.07074142246895045
270.075775 0.007132915332027858
313.114777 0.03748387079538685
351.522064 0.006227275520208591
357.105408 1.0
END IONS

BEGIN IONS
CHARGE=1+
PRECURSORTYPE=M+Na
FORMULA=C31H31N5O5
ONTOLOGY=
INCHIKEY=HOVSZVKDFBLXOB-UHFFFAOYSA-N
INCHI=InChI=1S/C31H31N5O5/c1-38-23-12-8-21(9-13-23)31(20-6-4-3-5-7-20,22-10-14-24(39-2)15-11-22)40-17-26-25(37)16-27(41-26)36-19-35-28-29(32)33-18-34-30(28)36/h3-15,18-19,25-27,37H,16-17H2,1-2H3,(H2,32,33,34)
SMILES=COc1ccc(C(OCC2OC(n3cnc4c(N)ncnc43)CC2O)(c2ccccc2)c2ccc(OC)cc2)cc1
IONMODE=positive
INSTRUMENTTYPE=LC-ESI-Orbitrap
INSTRUMENT=Orbitrap
COMMENT=DB#=CCMSLIB00010110877; origin=GNPS
NUM_PEAKS=22
COMPOUND_NAME=5-(6-aminopurin-9-yl)-2-{[bis(4-methoxyphenyl)phenylmethoxy]methyl}oxolan-3-ol
PRECURSOR_MZ=576.222
COLLISION_ENERGY=102040
PARENT_MASS=575.2147235480093
57.989601 0.0005732846306240949
59.293571 0.0006421949100514581
68.643044 0.0005237792414124193
73.963463 0.0005962037922961669
77.80423 0.0005066662673639388
115.106117 0.0006348607783163951
157.993851 0.0007404417164190735
195.080093 0.018211718659039578
205.774506 0.0005364611775376325
215.600204 0.0006693923152356502
225.090302 0.011993138919761849
228.140213 0.0006166782433898846
256.080658 0.0011282339319105322
271.110291 0.002698349300858613
272.074768 0.09218010427301794
273.125732 0.0023264477041264574
274.091125 0.002401622554410854
288.113922 0.008865895706813195
303.137238 1.0
311.102814 0.0008528984030233736
546.209961 0.0007959060876654878
576.220764 0.58852816505219
END IONS

BEGIN IONS
CHARGE=1+
PRECURSORTYPE=M+Na
FORMULA=C17H27NO4
ONTOLOGY=
INCHIKEY=CNRAIZKPBXFGHK-UHFFFAOYSA-N
INCHI=InChI=1S/C17H27NO4/c1-19-14-8-6-5-7-13(14)18-11-12-9-15(20-2)17(22-4)16(10-12)21-3/h9-10,13-14,18H,5-8,11H2,1-4H3
SMILES=COc1cc(CNC2CCCCC2OC)cc(OC)c1OC
IONMODE=positive
INSTRUMENTTYPE=LC-ESI-Orbitrap
INSTRUMENT=Orbitrap
COMMENT=DB#=CCMSLIB00010103964; origin=GNPS
NUM_PEAKS=10
COMPOUND_NAME="(2-methoxycyclohexyl)[(3,4,5-trimethoxyphenyl)methyl]amine "
PRECURSOR_MZ=332.183
COLLISION_ENERGY=102040
PARENT_MASS=331.1757235480092
52.844669 0.0017869779662497349
62.081211 0.0019438398725140507
63.33427 0.0019821640882490823
82.385223 0.0020784202580021852
92.364517 0.002580200105881787
98.047256 0.001844909920267806
157.950974 0.0026176330607857712
332.182922 1.0
334.404877 0.0022762801624946747
350.194183 0.004204077340049875
END IONS

BEGIN IONS
CHARGE=1+
PRECURSORTYPE=M+Na
FORMULA=C12H23NO4
ONTOLOGY=
INCHIKEY=XYDQDGJOQQAPIM-UHFFFAOYSA-N
INCHI=InChI=1S/C12H23NO4/c13-10(7-4-5-9-12(16)17)6-2-1-3-8-11(14)15/h10H,1-9,13H2,(H,14,15)(H,16,17)
SMILES=NC(CCCCCC(=O)O)CCCCC(=O)O
IONMODE=positive
INSTRUMENTTYPE=LC-ESI-Orbitrap
INSTRUMENT=Orbitrap
COMMENT=DB#=CCMSLIB00010106629; origin=GNPS
NUM_PEAKS=7
COMPOUND_NAME="6-aminododecanedioic acid, chloride "
PRECURSOR_MZ=268.152
COLLISION_ENERGY=102040
PARENT_MASS=267.1447235480092
82.402077 0.0024454959793305656
115.255913 0.0034069730310331814
215.358383 0.0029448137718814413
250.141312 0.014103985833309142
251.124725 0.06455598455598456
263.906311 0.0026916712630998345
268.151703 1.0
END IONS

BEGIN IONS
CHARGE=1+
PRECURSORTYPE=M+Na
FORMULA=C14H21NO4
ONTOLOGY=
INCHIKEY=MMZDBIIMJQSYKF-UHFFFAOYSA-N
INCHI=InChI=1S/C14H21NO4/c1-18-12-6-5-11(10-13(12)19-2)7-8-15-14(17)4-3-9-16/h5-6,10,16H,3-4,7-9H2,1-2H3,(H,15,17)
SMILES=COc1ccc(CCN=C(O)CCCO)cc1OC
IONMODE=positive
INSTRUMENTTYPE=LC-ESI-Orbitrap
INSTRUMENT=Orbitrap
COMMENT=DB#=CCMSLIB00010104743; origin=GNPS
NUM_PEAKS=14
COMPOUND_NAME="N-[2-(3,4-dimethoxyphenyl)ethyl]-4-hydroxybutanamide "
PRECURSOR_MZ=290.136
COLLISION_ENERGY=102040
PARENT_MASS=289.12872354800925
51.956329 0.00020442328181247355
53.10236 0.00019439589844339944
73.957962 0.00020713006014522973
88.7939 0.00017710942772738829
97.470467 0.00023610489184359718
104.293861 0.00021869538574882438
128.679626 0.00022841518067099435
146.781952 0.0002013473973434324
255.371506 0.00023186017127632043
272.125183 0.007604140066674102
275.112244 0.0015351739384984282
288.849823 0.00031755431258380633
290.135712 1.0
291.429108 0.0003656611456796096
END IONS

BEGIN IONS
CHARGE=1+
PRECURSORTYPE=M+Na
FORMULA=C20H19ClN2O4
ONTOLOGY=
INCHIKEY=AHLXYBMYSMXNBD-UHFFFAOYSA-N
INCHI=InChI=1S/C20H19ClN2O4/c21-10-19(24)23-18(20(25)26)8-14-11-22-17-9-15(6-7-16(14)17)27-12-13-4-2-1-3-5-13/h1-7,9,11,18,22H,8,10,12H2,(H,23,24)(H,25,26)
SMILES=O=C(O)C(Cc1c[nH]c2cc(OCc3ccccc3)ccc12)N=C(O)CCl
IONMODE=positive
INSTRUMENTTYPE=LC-ESI-Orbitrap
INSTRUMENT=Orbitrap
COMMENT=DB#=CCMSLIB00010112767; origin=GNPS
NUM_PEAKS=17
COMPOUND_NAME=2-(2-chloroacetylamino)-3-[6-(phenylmethoxy)indol-3-yl]propanoic acid
PRECURSOR_MZ=409.093
COLLISION_ENERGY=102040
PARENT_MASS=408.08572354800924
91.054077 0.009436788228491049
92.378769 0.0019247570083606633
104.283119 0.0023374601664033425
114.156998 0.0015573142255145838
140.064926 0.00184436028926144
168.041779 0.03452592436872198
182.042282 0.0034028655772811974
196.06044 0.00755252734530629
212.773865 0.001899744695752016
225.041 0.0032146777014637564
238.070312 0.013415532527023719
266.648865 0.0014715577251420788
268.387268 0.0017413333825639168
287.114899 0.17620221382787837
318.03656 0.058683054098654513
318.081207 0.034345478399188174
409.090851 1.0
END IONS

BEGIN IONS
CHARGE=1+
PRECURSORTYPE=M+Na
FORMULA=C3H8NO6P
ONTOLOGY=
INCHIKEY=BZQFBWGGLXLEPQ-REOHCLBHSA-N
INCHI=InChI=1S/C3H8NO6P/c4-2(3(5)6)1-10-11(7,8)9/h2H,1,4H2,(H,5,6)(H2,7,8,9)/t2-/m0/s1
SMILES=N[C@@H](COP(=O)(O)O)C(=O)O
IONMODE=positive
INSTRUMENTTYPE=LC-ESI-Orbitrap
INSTRUMENT=Orbitrap
COMMENT=DB#=CCMSLIB00010126958; origin=GNPS
NUM_PEAKS=21
COMPOUND_NAME=O-phospho-L-serine
PRECURSOR_MZ=207.998
COLLISION_ENERGY=102040
PARENT_MASS=206.99072354800924
51.368801 0.006228284367398342
52.1647 0.006115944974783343
69.494003 0.006039518442375484
70.988098 0.00632561391487869
73.974098 0.007243649801889668
82.026802 0.024302963514920096
85.686798 0.005573714758500917
87.196098 0.006025113003398642
93.445602 0.006277653582950435
104.313004 0.011165055663540223
110.013 0.008802913369140793
110.022003 0.24189414880990034
112.389999 0.006097542434140534
120.966003 1.0
127.511002 0.005335464843323193
128.031998 0.02920100347627564
129.936996 0.006058783021743256
161.990997 0.010579322019862789
165.138 0.025826743135146327
207.998001 0.392997417952419
208.182007 0.022412604414783804
END IONS

BEGIN IONS
CHARGE=1+
PRECURSORTYPE=M+Na
FORMULA=C18H17NO5
ONTOLOGY=
INCHIKEY=SIMPBZKYKMVOJU-UHFFFAOYSA-N
INCHI=InChI=1S/C18H17NO5/c1-23-15-8-7-11(9-16(15)24-2)14(20)10-18(22)12-5-3-4-6-13(12)19-17(18)21/h3-9,22H,10H2,1-2H3,(H,19,21)
SMILES=COc1ccc(C(=O)CC2(O)C(O)=Nc3ccccc32)cc1OC
IONMODE=positive
INSTRUMENTTYPE=LC-ESI-Orbitrap
INSTRUMENT=Orbitrap
COMMENT=DB#=CCMSLIB00010110813; origin=GNPS
NUM_PEAKS=11
COMPOUND_NAME="3-[2-(3,4-dimethoxyphenyl)-2-oxoethyl]-3-hydroxyindolin-2-one "
PRECURSOR_MZ=350.1
COLLISION_ENERGY=102040
PARENT_MASS=349.09272354800925
60.955509 0.0005989209410704574
62.100159 0.0006512582573494107
64.806671 0.0006528511321926832
76.977043 0.0007024578058831694
165.05452 0.002825532418416364
170.021194 1.0
188.032333 0.0063462409291466515
203.067734 0.0172128331099516
211.047211 0.008284769613409276
215.293762 0.0008503676127584724
350.099426 0.7597487353711512
END IONS

BEGIN IONS
CHARGE=1+
PRECURSORTYPE=M+Na
FORMULA=C13H12ClNO6
ONTOLOGY=
INCHIKEY=NSQLRHGFKIZZIG-UHFFFAOYSA-N
INCHI=InChI=1S/C13H12ClNO6/c1-17-10-8(7-3-6(4-16)21-15-7)9(14)11-13(12(10)18-2)20-5-19-11/h3,16H,4-5H2,1-2H3
SMILES=COc1c2c(c(Cl)c(-c3cc(CO)on3)c1OC)OCO2
IONMODE=positive
INSTRUMENTTYPE=LC-ESI-Orbitrap
INSTRUMENT=Orbitrap
COMMENT=DB#=CCMSLIB00010107028; origin=GNPS
NUM_PEAKS=15
COMPOUND_NAME="[3-(4-chloro-6,7-dimethoxy-2H-benzo[3,4-d]1,3-dioxolen-5-yl)isoxazol-5-yl]meth an-1-ol "
PRECURSOR_MZ=336.025
COLLISION_ENERGY=102040
PARENT_MASS=335.0177235480092
56.965469 0.0025970792709192497
62.77676 0.0020436327228405956
65.392174 0.001735565388635002
79.29245 0.001908405491837559
92.591652 0.0020096020289457916
172.794205 0.002644543133456739
202.080307 0.002536182239739074
209.941238 0.004081892178224117
209.960739 0.002707231253789273
268.882599 0.001961242621832123
280.158722 0.0027358886802270025
295.281311 0.002332893620946429
320.99939 0.02278623619629979
336.024109 1.0
354.033112 0.01469230431679352
END IONS

BEGIN IONS
CHARGE=1+
PRECURSORTYPE=M+Na
FORMULA=C19H18BrN5O3S
ONTOLOGY=
INCHIKEY=PRNAQHLYVJWCIL-UHFFFAOYSA-N
INCHI=InChI=1S/C19H18BrN5O3S/c1-9-13(23-18(28-9)12-7-11(20)5-6-14(12)27-4)8-29-19-24-15-16(25(19)3)21-10(2)22-17(15)26/h5-7H,8H2,1-4H3,(H,21,22,26)
SMILES=COc1ccc(Br)cc1-c1nc(CSc2nc3c(O)nc(C)nc3n2C)c(C)o1
IONMODE=positive
INSTRUMENTTYPE=LC-ESI-Orbitrap
INSTRUMENT=Orbitrap
COMMENT=DB#=CCMSLIB00010111411; origin=GNPS
NUM_PEAKS=24
COMPOUND_NAME="8-{[2-(5-bromo-2-methoxyphenyl)-5-methyl(1,3-oxazol-4-yl)]methylthio}-2,9-dime thylhydropurin-6-one "
PRECURSOR_MZ=498.021
COLLISION_ENERGY=102040
PARENT_MASS=497.01372354800924
52.684792 0.0004550752948494082
54.588459 0.0004505904135943478
56.67828 0.0004521320915257748
73.947357 0.0004759580231932831
92.369652 0.0007898997110475099
132.056519 0.0009826094524758857
158.059738 0.0007774261350568732
159.067993 0.003609068037470622
184.075378 0.0007732215588802541
184.958954 0.0024198737421835177
205.048233 0.0004800224468306816
208.959106 0.0005796709022165544
211.970154 0.022301212193326973
218.022949 0.06847965188351698
219.030807 0.07501468448229684
237.986328 0.005097207698915345
279.996216 0.12687729070565823
287.928802 0.000865161624608992
287.962097 0.012646103766417293
482.995819 0.023773374465300545
495.089233 0.0005544434451568398
495.163849 0.0010294204005755784
498.019806 1.0
500.899475 0.0011621448552175217
END IONS

BEGIN IONS
CHARGE=1+
PRECURSORTYPE=M+Na
FORMULA=C19H22N2O2
ONTOLOGY=
INCHIKEY=UXMKYLOOFICPRA-UHFFFAOYSA-N
INCHI=InChI=1S/C19H22N2O2/c1-2-23-18-10-6-5-9-17(18)19(22)20-14-21-12-11-15-7-3-4-8-16(15)13-21/h3-10H,2,11-14H2,1H3,(H,20,22)
SMILES=CCOc1ccccc1C(O)=NCN1CCc2ccccc2C1
IONMODE=positive
INSTRUMENTTYPE=LC-ESI-Orbitrap
INSTRUMENT=Orbitrap
COMMENT=DB#=CCMSLIB00010104506; origin=GNPS
NUM_PEAKS=17
COMPOUND_NAME="(2-ethoxyphenyl)-N-(2-1,2,3,4-tetrahydroisoquinolylmethyl)carboxamide "
PRECURSOR_MZ=333.157
COLLISION_ENERGY=102040
PARENT_MASS=332.1497235480092
92.390739 0.003739486176527019
98.98439 0.0034906822303231357
104.298233 0.003847177436824222
105.199608 0.0033025319824475626
116.841621 0.0032567322510567978
121.017723 0.0030252579329467177
134.41098 0.0038867880153243425
136.230103 0.0038310856393085476
146.09639 0.8249843723889512
156.078583 0.03211427651897285
168.078201 0.01381295142133896
186.088715 0.04699176223750255
188.068085 0.8464830138698917
200.068161 0.6370606475091755
200.09082 0.003992003614465288
333.156891 1.0
351.166199 0.0037939507219646846
END IONS

BEGIN IONS
CHARGE=1+
PRECURSORTYPE=M+Na
FORMULA=C16H16BrNO3
ONTOLOGY=
INCHIKEY=GNWHZQLSJKLODU-UHFFFAOYSA-N
INCHI=InChI=1S/C16H16BrNO3/c1-10-8-12(5-6-13(10)17)18-16(19)11-4-7-14(20-2)15(9-11)21-3/h4-9H,1-3H3,(H,18,19)
SMILES=COc1ccc(C(=O)Nc2ccc(Br)c(C)c2)cc1OC
IONMODE=positive
INSTRUMENTTYPE=LC-ESI-Orbitrap
INSTRUMENT=Orbitrap
COMMENT=DB#=CCMSLIB00010108441; origin=GNPS
NUM_PEAKS=13
COMPOUND_NAME="(3,4-dimethoxyphenyl)-N-(4-bromo-3-methylphenyl)carboxamide "
PRECURSOR_MZ=372.021
COLLISION_ENERGY=102040
PARENT_MASS=371.01372354800924
51.7887 0.007519448092715805
62.24649 0.007422027220113441
63.063671 0.011066289491535208
69.092918 0.007739547101187813
82.381073 0.011672463809949919
90.976761 0.009908063561707103
99.261673 0.008223043283732879
143.930069 0.008194177839998845
160.213699 0.008158096035331304
161.49733 0.008280774171200947
208.402481 0.0387735072957409
372.019989 1.0
384.527222 0.008677674022543911
END IONS

BEGIN IONS
CHARGE=1+
PRECURSORTYPE=M+Na
FORMULA=C29H31N3O3
ONTOLOGY=
INCHIKEY=VIFLWMXTJSJZPC-UHFFFAOYSA-N
INCHI=InChI=1S/C29H31N3O3/c1-19-23(24-9-5-6-10-25(24)31-19)15-16-30-28(34)26(18-22-8-7-17-35-22)32-27(33)20-11-13-21(14-12-20)29(2,3)4/h5-14,17-18,31H,15-16H2,1-4H3,(H,30,34)(H,32,33)/b26-18-
SMILES=Cc1[nH]c2ccccc2c1CCN=C(O)C(=Cc1ccco1)NC(=O)c1ccc(C(C)(C)C)cc1
IONMODE=positive
INSTRUMENTTYPE=LC-ESI-Orbitrap
INSTRUMENT=Orbitrap
COMMENT=DB#=CCMSLIB00010107350; origin=GNPS
NUM_PEAKS=27
COMPOUND_NAME=(2Z)-2-{[4-(tert-butyl)phenyl]carbonylamino}-3-(2-furyl)-N-[2-(2-methylindol-3 -yl)ethyl]prop-2-enamide
PRECURSOR_MZ=492.226
COLLISION_ENERGY=102040
PARENT_MASS=491.2187235480092
92.382393 0.0002549070579734394
104.289574 0.0001865676895738935
118.659409 0.00019550157503429592
136.214584 0.00021531149496823178
142.74826 0.0001896022974069106
158.096527 0.0036964922166921686
161.09639 0.00028238846650924254
162.100174 0.00024847368936744304
187.046814 0.00020890240322489958
192.057205 0.0008897227397779599
194.054016 0.0015001644514676868
197.104553 0.005209960388899803
263.604706 0.0003547577941110352
264.103455 0.00020977637028080852
272.154694 0.00024381253173592871
277.140686 0.00021278670125116151
318.11087 0.0007933435950013357
327.112885 0.00022868804629617133
335.136169 0.0008496173626568055
474.210236 0.002422345356627598
475.218536 0.00029770716685031305
477.198364 0.0022506351070041564
489.416473 0.0009919040547313128
491.213562 0.0004356240236452758
491.709656 0.0045039892226266965
492.225098 1.0
495.058289 0.00106330230782654
END IONS

BEGIN IONS
CHARGE=1+
PRECURSORTYPE=M+Na
FORMULA=C18H14N2O4
ONTOLOGY=
INCHIKEY=ILEYTZZTYFIPGV-UHFFFAOYSA-N
INCHI=InChI=1S/C18H14N2O4/c21-15(12-5-6-16-17(9-12)24-8-7-23-16)10-20-11-19-14-4-2-1-3-13(14)18(20)22/h1-6,9,11H,7-8,10H2
SMILES=O=C(Cn1cnc2ccccc2c1=O)c1ccc2c(c1)OCCO2
IONMODE=positive
INSTRUMENTTYPE=LC-ESI-Orbitrap
INSTRUMENT=Orbitrap
COMMENT=DB#=CCMSLIB00010104268; origin=GNPS
NUM_PEAKS=15
COMPOUND_NAME="3-(2-(2H,3H-benzo[3,4-e]1,4-dioxin-6-yl)-2-oxoethyl)-3-hydroquinazolin-4-one "
PRECURSOR_MZ=345.085
COLLISION_ENERGY=102040
PARENT_MASS=344.0777235480092
54.540691 0.0005052958980925516
57.419491 0.0006831094373608718
65.819839 0.0005786030750178959
73.952499 0.0006754732730978151
87.205528 0.0006012933916852643
92.378563 0.0006122021977753453
94.988861 0.000693363715085548
119.729271 0.0006569283027446774
144.372696 0.0006357652189299202
193.719589 0.0006641281147641309
202.274338 0.0006739460402452038
238.494385 0.0007317627125226331
297.416412 0.0005609308091519647
345.083801 1.0
363.094177 0.002178488576189174
END IONS

BEGIN IONS
CHARGE=1+
PRECURSORTYPE=M+Na
FORMULA=C24H24N2O4
ONTOLOGY=
INCHIKEY=DRBKOEZCXGYSBX-UHFFFAOYSA-N
INCHI=InChI=1S/C24H24N2O4/c1-15-8-7-11-21(16(15)2)25-24(28)20-9-5-6-10-22(20)26-23(27)17-12-18(29-3)14-19(13-17)30-4/h5-14H,1-4H3,(H,25,28)(H,26,27)
SMILES=COc1cc(OC)cc(C(O)=Nc2ccccc2C(O)=Nc2cccc(C)c2C)c1
IONMODE=positive
INSTRUMENTTYPE=LC-ESI-Orbitrap
INSTRUMENT=Orbitrap
COMMENT=DB#=CCMSLIB00010107362; origin=GNPS
NUM_PEAKS=13
COMPOUND_NAME="{2-[(3,5-dimethoxyphenyl)carbonylamino]phenyl}-N-(2,3-dimethylphenyl)carboxami de "
PRECURSOR_MZ=427.163
COLLISION_ENERGY=102040
PARENT_MASS=426.15572354800923
79.561447 0.0004602846365840571
79.823547 0.00045202692871566715
104.288811 0.0005124733503122817
124.928429 0.0005213916748101429
174.112106 0.0005539270438115994
190.221695 0.00047960767299608963
226.018219 0.0029095207903485232
228.015488 0.0027744246896216633
268.13327 0.007501797290117555
304.743896 0.000543522331897428
409.151733 0.0028550199184171495
424.887543 0.0005635059849389318
427.162415 1.0
END IONS

BEGIN IONS
CHARGE=1+
PRECURSORTYPE=M+Na
FORMULA=C28H40N2O9
ONTOLOGY=
INCHIKEY=UIFFUZWRFRDZJC-UHFFFAOYSA-N
INCHI=InChI=1S/C28H40N2O9/c1-6-7-8-9-11-20-25(39-22(32)14-16(2)3)18(5)38-28(36)23(17(4)37-27(20)35)30-26(34)19-12-10-13-21(24(19)33)29-15-31/h10,12-13,15-18,20,23,25,33H,6-9,11,14H2,1-5H3,(H,29,31)(H,30,34)/t17-,18+,20-,23+,25+/m1/s1
SMILES=CCCCCCC1C(=O)OC(C)C(N=C(O)c2cccc(N=CO)c2O)C(=O)OC(C)C1OC(=O)CC(C)C
IONMODE=positive
INSTRUMENTTYPE=LC-ESI-Orbitrap
INSTRUMENT=Orbitrap
COMMENT=DB#=CCMSLIB00010110354; origin=GNPS
NUM_PEAKS=32
COMPOUND_NAME=Antipiricullin
PRECURSOR_MZ=571.263
COLLISION_ENERGY=102040
PARENT_MASS=570.2557235480093
66.193817 0.0010003466265895485
79.215782 0.0010541116997859518
80.331177 0.0010885845996589398
95.085587 0.0015307232604152435
104.29435 0.0010759339942009625
114.701683 0.001113885810574894
118.699013 0.0012609490990238793
124.036621 0.006146296661758231
152.600754 0.0011325454536254104
153.312332 0.0010613857979242887
157.825577 0.0012198346312854533
158.021118 0.0018061901942626973
170.446793 0.0010500002530121092
186.015991 0.2458110682677273
189.912125 0.0012163557147845095
205.120148 0.005354052494952409
215.078217 0.013864431051670133
243.073669 0.6415552148325819
259.068481 0.026658937146731843
274.832062 0.0012897292264407775
287.063263 0.21104625567379653
288.154053 0.0014045334709719207
307.187134 0.04946133721959933
322.461304 0.0011723948608180388
376.135468 0.0012309039110611833
390.224609 0.005425844680926429
408.235107 0.0776329705139688
446.873535 0.001288780431031429
448.762695 0.0012388105394724191
469.19101 0.00355956411073834
543.265625 0.0015851208638845455
571.261841 1.0
END IONS

BEGIN IONS
CHARGE=1+
PRECURSORTYPE=M+Na
FORMULA=C28H40N2O9
ONTOLOGY=
INCHIKEY=UIFFUZWRFRDZJC-UHFFFAOYSA-N
INCHI=InChI=1S/C28H40N2O9/c1-6-7-8-9-11-20-25(39-22(32)14-16(2)3)18(5)38-28(36)23(17(4)37-27(20)35)30-26(34)19-12-10-13-21(24(19)33)29-15-31/h10,12-13,15-18,20,23,25,33H,6-9,11,14H2,1-5H3,(H,29,31)(H,30,34)/t17-,18+,20-,23+,25+/m1/s1
SMILES=CCCCCCC1C(=O)OC(C)C(N=C(O)c2cccc(N=CO)c2O)C(=O)OC(C)C1OC(=O)CC(C)C
IONMODE=positive
INSTRUMENTTYPE=LC-ESI-Orbitrap
INSTRUMENT=Orbitrap
COMMENT=DB#=CCMSLIB00010110355; origin=GNPS
NUM_PEAKS=20
COMPOUND_NAME=Antipiricullin
PRECURSOR_MZ=571.263
COLLISION_ENERGY=102040
PARENT_MASS=570.2557235480093
54.970501 0.0014648372888203935
75.372749 0.0012434135251986418
98.955353 0.0017515413652230603
108.694862 0.0014044088911786008
124.036583 0.005926393800840352
136.199142 0.0013872066465944407
158.021088 0.001676998305358367
186.01593 0.21052592113608917
205.120041 0.0023849368324757206
215.078629 0.009777932254914329
243.073654 0.5692235965394377
259.068481 0.020082517844020632
287.063293 0.1757654778298354
307.186951 0.04432577346143565
379.894409 0.0017096384617488244
390.223053 0.0015636399243806971
396.964722 0.0016187753236889023
408.234802 0.06512549257965743
469.193329 0.001909008065647294
571.261719 1.0
END IONS

BEGIN IONS
CHARGE=1+
PRECURSORTYPE=M+Na
FORMULA=C17H22N2O3S
ONTOLOGY=
INCHIKEY=NUUXBDNYONRYMI-UHFFFAOYSA-N
INCHI=InChI=1S/C17H22N2O3S/c1-5-19(6-2)17(20)13-7-8-15(16(9-13)21-4)22-10-14-11-23-12(3)18-14/h7-9,11H,5-6,10H2,1-4H3
SMILES=CCN(CC)C(=O)c1ccc(OCc2csc(C)n2)c(OC)c1
IONMODE=positive
INSTRUMENTTYPE=LC-ESI-Orbitrap
INSTRUMENT=Orbitrap
COMMENT=DB#=CCMSLIB00010103497; origin=GNPS
NUM_PEAKS=25
COMPOUND_NAME="N,N-diethyl{3-methoxy-4-[(2-methyl(1,3-thiazol-4-yl))methoxy]phenyl}carboxamid e "
PRECURSOR_MZ=357.124
COLLISION_ENERGY=102040
PARENT_MASS=356.11672354800925
65.639412 0.0004161700339563024
70.889954 0.000409045676139867
73.378319 0.0003808170885653116
92.389183 0.00044601168367797524
92.915703 0.000383505525477174
138.029465 0.0004731648964877857
149.263199 0.00044332324676611283
173.020996 0.037652903169089105
206.410461 0.0004442641996852647
220.935303 0.0005645717514911079
230.079147 0.0018923907422599565
244.094162 0.008452580072741038
245.102249 0.04246628061608758
257.049377 0.0007022197213784637
269.011963 0.0015708536876012113
284.035034 0.006988188486849578
286.12796 0.002299823356252706
288.922363 0.0010073573108748484
333.85144 0.0016010986028596635
336.123383 0.011378137120229722
336.624237 0.010293218404447642
337.125031 0.0010130030283897595
339.132141 0.0018945414917894464
355.39093 0.0009254944069086377
357.124207 1.0
END IONS

BEGIN IONS
CHARGE=1+
PRECURSORTYPE=M+Na
FORMULA=C24H25N3O5
ONTOLOGY=
INCHIKEY=FBRNSVONRJRESR-UHFFFAOYSA-N
INCHI=InChI=1S/C24H25N3O5/c1-31-17-11-16(12-18(13-17)32-2)25-22(28)15-27-21-8-4-3-7-19(21)20(14-23(27)29)24(30)26-9-5-6-10-26/h3-4,7-8,11-14H,5-6,9-10,15H2,1-2H3,(H,25,28)
SMILES=COc1cc(N=C(O)Cn2c(=O)cc(C(=O)N3CCCC3)c3ccccc32)cc(OC)c1
IONMODE=positive
INSTRUMENTTYPE=LC-ESI-Orbitrap
INSTRUMENT=Orbitrap
COMMENT=DB#=CCMSLIB00010114264; origin=GNPS
NUM_PEAKS=18
COMPOUND_NAME="N-(3,5-dimethoxyphenyl)-2-[2-oxo-4-(pyrrolidinylcarbonyl)hydroquinolyl]acetami de "
PRECURSOR_MZ=458.169
COLLISION_ENERGY=102040
PARENT_MASS=457.1617235480092
50.633591 0.0006739316345825363
66.611237 0.000729064629716483
71.563538 0.0007212604157934129
82.396606 0.000976030238056217
89.741249 0.0007751346667462193
92.372589 0.0008166732247238504
136.206146 0.0010684220609519176
182.736893 0.0006749386299274485
185.394073 0.0009141000243441125
210.411682 0.0010085058379296376
217.5784 0.0007585192435551668
232.499588 0.0008013165457139383
238.363815 0.0007182394297586761
305.090149 0.0027000062685460222
308.669128 0.0007320856157512198
440.157349 0.007421303943167197
458.168427 1.0
476.174805 0.0013395555575695462
END IONS

BEGIN IONS
CHARGE=1+
PRECURSORTYPE=M+Na
FORMULA=C18H17ClN2O2
ONTOLOGY=
INCHIKEY=XRCGDEXZISQQTC-UHFFFAOYSA-N
INCHI=InChI=1S/C18H17ClN2O2/c1-23-15-6-7-17-16(10-15)13(11-21-17)8-9-20-18(22)12-2-4-14(19)5-3-12/h2-7,10-11,21H,8-9H2,1H3,(H,20,22)
SMILES=COc1ccc2[nH]cc(CCNC(=O)c3ccc(Cl)cc3)c2c1
IONMODE=positive
INSTRUMENTTYPE=LC-ESI-Orbitrap
INSTRUMENT=Orbitrap
COMMENT=DB#=CCMSLIB00010111324; origin=GNPS
NUM_PEAKS=10
COMPOUND_NAME=(4-chlorophenyl)-N-[2-(5-methoxyindol-3-yl)ethyl]carboxamide
PRECURSOR_MZ=351.087
COLLISION_ENERGY=102040
PARENT_MASS=350.0797235480092
116.691856 0.00047280220222476214
135.116806 0.00046716785524557704
163.098846 0.0005307554854392376
216.591248 0.0005186818847695553
328.097443 0.0006460181264991388
336.062988 0.0006059337722757932
349.392975 0.0007115375327999485
350.577789 0.0007086398686392247
351.086334 1.0
352.792542 0.0006606674286450201
END IONS

BEGIN IONS
CHARGE=1+
PRECURSORTYPE=M+Na
FORMULA=C6H14N2O3
ONTOLOGY=
INCHIKEY=YSMODUONRAFBET-UHFFFAOYSA-N
INCHI=InChI=1S/C6H14N2O3/c7-3-4(9)1-2-5(8)6(10)11/h4-5,9H,1-3,7-8H2,(H,10,11)
SMILES=NCC(O)CCC(N)C(=O)O
IONMODE=positive
INSTRUMENTTYPE=LC-ESI-Orbitrap
INSTRUMENT=Orbitrap
COMMENT=DB#=CCMSLIB00010102950; origin=GNPS
NUM_PEAKS=9
COMPOUND_NAME=5-hydroxylysine
PRECURSOR_MZ=185.09
COLLISION_ENERGY=102040
PARENT_MASS=184.08272354800926
70.111397 0.006289178502700519
71.325302 0.0058885661786595225
114.092003 0.05493269966828272
150.052994 0.011819129393659098
167.078995 0.3315471633920218
167.095001 0.01130560501456579
168.063004 0.053147329200157356
185.089005 1.0
185.164993 0.0420730745274092
END IONS

BEGIN IONS
CHARGE=1+
PRECURSORTYPE=M+Na
FORMULA=C6H14N2O3
ONTOLOGY=
INCHIKEY=YSMODUONRAFBET-UHFFFAOYSA-N
INCHI=InChI=1S/C6H14N2O3/c7-3-4(9)1-2-5(8)6(10)11/h4-5,9H,1-3,7-8H2,(H,10,11)
SMILES=NCC(O)CCC(N)C(=O)O
IONMODE=positive
INSTRUMENTTYPE=LC-ESI-Orbitrap
INSTRUMENT=Orbitrap
COMMENT=DB#=CCMSLIB00010126565; origin=GNPS
NUM_PEAKS=9
COMPOUND_NAME=5-hydroxylysine
PRECURSOR_MZ=185.09
COLLISION_ENERGY=102040
PARENT_MASS=184.08272354800926
70.111397 0.006289178502700519
71.325302 0.0058885661786595225
114.092003 0.05493269966828272
150.052994 0.011819129393659098
167.078995 0.3315471633920218
167.095001 0.01130560501456579
168.063004 0.053147329200157356
185.089005 1.0
185.164993 0.0420730745274092
END IONS

BEGIN IONS
CHARGE=1+
PRECURSORTYPE=M+Na
FORMULA=C22H13Br2FN2O5
ONTOLOGY=
INCHIKEY=XZPHCPOTGWXJFQ-UHFFFAOYSA-N
INCHI=InChI=1S/C22H13Br2FN2O5/c23-15-6-14(10-26-27-21(28)12-4-5-18-19(8-12)31-11-30-18)20(17(24)9-15)32-22(29)13-2-1-3-16(25)7-13/h1-10H,11H2,(H,27,28)/b26-10-
SMILES=O=C(Oc1c(Br)cc(Br)cc1C=NN=C(O)c1ccc2c(c1)OCO2)c1cccc(F)c1
IONMODE=positive
INSTRUMENTTYPE=LC-ESI-Orbitrap
INSTRUMENT=Orbitrap
COMMENT=DB#=CCMSLIB00010113805; origin=GNPS
NUM_PEAKS=17
COMPOUND_NAME="2-[(1Z)-2-(2H-benzo[3,4-d]1,3-dioxolan-5-ylcarbonylamino)-2-azavinyl]-4,6-dibr omophenyl 3-fluorobenzoate "
PRECURSOR_MZ=584.907
COLLISION_ENERGY=102040
PARENT_MASS=583.8997235480093
92.367607 0.0007585295622318853
93.228363 0.0007403512938559578
101.905991 0.0007549883411196916
123.024094 0.016274507906012214
148.039139 0.040262267557197216
149.023315 0.0068310155254216005
170.020615 0.0069098667155197795
196.947052 0.0013473165924859538
260.709106 0.0007299637119268564
275.865265 0.015982711286367454
422.89682 0.004371991585114312
444.877991 0.008871467130267596
461.883362 0.006947875822123991
505.985992 0.01109204884902051
584.90625 1.0
625.933167 0.006336188895344404
953.661011 0.0008576837533733082
END IONS

BEGIN IONS
CHARGE=1+
PRECURSORTYPE=M+Na
FORMULA=C20H21NO2
ONTOLOGY=
INCHIKEY=UGORMPYEOUOURD-UHFFFAOYSA-N
INCHI=InChI=1S/C20H21NO2/c1-2-3-11-17-19(22)16-12-7-8-13-18(16)21(20(17)23)14-15-9-5-4-6-10-15/h4-10,12-13,22H,2-3,11,14H2,1H3
SMILES=CCCCc1c(O)c2ccccc2n(Cc2ccccc2)c1=O
IONMODE=positive
INSTRUMENTTYPE=LC-ESI-Orbitrap
INSTRUMENT=Orbitrap
COMMENT=DB#=CCMSLIB00010105044; origin=GNPS
NUM_PEAKS=17
COMPOUND_NAME=3-butyl-4-hydroxy-1-benzylhydroquinolin-2-one
PRECURSOR_MZ=330.146
COLLISION_ENERGY=102040
PARENT_MASS=329.13872354800924
52.381279 0.0016077931014708833
60.609119 0.0018407546520629642
63.66618 0.0016120939300971987
82.004089 0.0019260544198182183
82.06485 0.009185853141038506
89.043953 0.0018629755999655933
104.409508 0.0017231986696103448
110.059464 0.008103477936749147
121.063721 0.002513117527310262
161.095459 0.0019188863721076928
163.110413 0.0029080769561602203
169.545593 0.0015999082489893052
213.063385 0.0017181810362129771
232.412445 0.002028557502078734
246.14859 0.04000200705335895
330.143097 1.0
348.152832 0.0023403675774865958
END IONS

BEGIN IONS
CHARGE=1+
PRECURSORTYPE=M+Na
FORMULA=C16H16N4O3
ONTOLOGY=
INCHIKEY=GCFBQCLCBDJAGR-UHFFFAOYSA-N
INCHI=InChI=1S/C16H16N4O3/c1-3-10-14-13(8-4-5-11(21)12(6-8)22-2)9(7-17)15(18)23-16(14)20-19-10/h4-6,13,21H,3,18H2,1-2H3,(H,19,20)
SMILES=CCc1[nH]nc2c1C(c1ccc(O)c(OC)c1)C(C#N)=C(N)O2
IONMODE=positive
INSTRUMENTTYPE=LC-ESI-Orbitrap
INSTRUMENT=Orbitrap
COMMENT=DB#=CCMSLIB00010107956; origin=GNPS
NUM_PEAKS=16
COMPOUND_NAME="6-amino-3-ethyl-4-(4-hydroxy-3-methoxyphenyl)-4H-pyrano[3,2-d]pyrazole-5-carbo nitrile "
PRECURSOR_MZ=335.111
COLLISION_ENERGY=102040
PARENT_MASS=334.1037235480092
52.835979 0.007370194707938093
54.27877 0.006530828756864703
57.040791 0.007295307039440839
65.960617 0.0067242885671492765
67.929543 0.00700199700449326
71.089882 0.007133050424363455
74.177673 0.007338991512730903
100.093857 0.006686844732900649
118.640968 0.010346979530703944
126.200821 0.006530828756864703
136.198029 0.008237643534697954
153.577454 0.007182975536694958
157.957993 0.0073920369445831255
242.174988 0.007348352471293061
290.11087 0.007429480778831752
335.110687 1.0
END IONS

BEGIN IONS
CHARGE=1+
PRECURSORTYPE=M+Na
FORMULA=C20H21N5O4S
ONTOLOGY=
INCHIKEY=XQSRBHJKYQWLRM-UHFFFAOYSA-N
INCHI=InChI=1S/C20H21N5O4S/c1-10-13(23-19(29-10)12-7-6-8-14(27-4)16(12)28-5)9-30-20-24-15-17(25(20)3)21-11(2)22-18(15)26/h6-8H,9H2,1-5H3,(H,21,22,26)
SMILES=COc1cccc(-c2nc(CSc3nc4c(O)nc(C)nc4n3C)c(C)o2)c1OC
IONMODE=positive
INSTRUMENTTYPE=LC-ESI-Orbitrap
INSTRUMENT=Orbitrap
COMMENT=DB#=CCMSLIB00010106820; origin=GNPS
NUM_PEAKS=48
COMPOUND_NAME="8-{[2-(2,3-dimethoxyphenyl)-5-methyl(1,3-oxazol-4-yl)]methylthio}-2,9-dimethyl hydropurin-6-one "
PRECURSOR_MZ=450.121
COLLISION_ENERGY=102040
PARENT_MASS=449.1137235480092
61.862801 0.00031103441557537887
74.479553 0.0003221676385042515
83.461456 0.00026186268097285815
103.054337 0.00030995201890173847
104.266708 0.0003138950353557142
105.06955 0.0005257355271967627
125.463898 0.0003061636305439971
130.064728 0.0003426558612553018
131.049301 0.00029216978783478916
135.080505 0.0018989876498539538
136.189392 0.00029371606879713256
137.059692 0.003153408080555053
145.065018 0.0003844054472385741
149.048416 0.0003237912335147121
157.051666 0.0004658171399059552
158.059998 0.004331983430053208
159.066849 0.0003592010675523764
160.050339 0.0003016794157532012
161.059677 0.0006428663100942767
162.067551 0.005425281384478123
163.075363 0.0004528283798222705
164.070175 0.009450869241842982
172.076004 0.0005852673442469843
186.053024 0.0012766868765588446
188.069901 0.0007169331681905265
189.078583 0.00041494449624485667
190.08609 0.008078776829907548
200.069733 0.0005759896584729238
204.066788 0.00039754883541849324
217.014999 0.0007456939940901141
217.073349 0.009020925820263393
218.023041 0.027376208611857192
219.030945 0.09574973751880664
232.096634 0.1847078224807604
238.046432 0.0027896454841637637
239.054382 0.0045312990460992745
240.062439 0.013284254375588554
255.089981 0.00036646858807539047
271.045166 0.0016752407946028609
287.076691 0.0012598324140693012
346.765137 0.0003201574732532051
392.0784 0.00877862359346418
406.092712 0.003179926799059243
420.073212 0.016499281752492993
434.088959 0.005984030010220917
435.096344 0.026132998718133082
449.11319 0.00035541267919463504
450.120117 1.0
END IONS

BEGIN IONS
CHARGE=1+
PRECURSORTYPE=M+Na
FORMULA=C30H30O8
ONTOLOGY=
INCHIKEY=JGABKNAYCZRLJE-UHFFFAOYSA-N
INCHI=InChI=1S/C30H30O8/c1-33-25-15-19(16-26(34-2)29(25)37-5)7-13-23(31)21-9-11-22(12-10-21)24(32)14-8-20-17-27(35-3)30(38-6)28(18-20)36-4/h7-18H,1-6H3/b13-7+,14-8+
SMILES=COc1cc(C=CC(=O)c2ccc(C(=O)C=Cc3cc(OC)c(OC)c(OC)c3)cc2)cc(OC)c1OC
IONMODE=positive
INSTRUMENTTYPE=LC-ESI-Orbitrap
INSTRUMENT=Orbitrap
COMMENT=DB#=CCMSLIB00010113644; origin=GNPS
NUM_PEAKS=10
COMPOUND_NAME="(2E)-1-{4-[(2E)-3-(3,4,5-trimethoxyphenyl)prop-2-enoyl]phenyl}-3-(3,4,5-trimet hoxyphenyl)prop-2-en-1-one "
PRECURSOR_MZ=541.183
COLLISION_ENERGY=102040
PARENT_MASS=540.1757235480093
57.27911 0.0018176471466510176
66.738564 0.0021110673288961103
81.167473 0.00179232991853695
92.372337 0.0027446471914430366
104.279808 0.002965361487822089
118.648117 0.0022019496862286615
196.974258 0.002057836233887045
387.96637 0.0020085000970493745
526.158081 0.007079086476510481
541.182861 1.0
END IONS

BEGIN IONS
CHARGE=1+
PRECURSORTYPE=M+Na
FORMULA=C21H24N2O3
ONTOLOGY=
INCHIKEY=FTDAWMRTACXJBX-UHFFFAOYSA-N
INCHI=InChI=1S/C21H24N2O3/c1-13-6-5-7-17-16(14(2)23-20(13)17)10-11-22-21(24)15-8-9-18(25-3)19(12-15)26-4/h5-9,12,23H,10-11H2,1-4H3,(H,22,24)
SMILES=COc1ccc(C(O)=NCCc2c(C)[nH]c3c(C)cccc23)cc1OC
IONMODE=positive
INSTRUMENTTYPE=LC-ESI-Orbitrap
INSTRUMENT=Orbitrap
COMMENT=DB#=CCMSLIB00010110172; origin=GNPS
NUM_PEAKS=12
COMPOUND_NAME="(3,4-dimethoxyphenyl)-N-[2-(2,7-dimethylindol-3-yl)ethyl]carboxamide "
PRECURSOR_MZ=375.168
COLLISION_ENERGY=102040
PARENT_MASS=374.16072354800923
52.162769 0.0004608171824702472
82.391434 0.00042074612312500834
136.197739 0.0005786557792114312
153.042099 0.000481001123473775
159.177139 0.0005031144117791105
167.053574 0.00043885230549582
216.942307 0.0004634885864265965
272.066132 0.0005136516162735993
285.478546 0.0004577005445211731
334.107574 0.0008342200910355104
360.148041 0.000882305362249797
375.167694 1.0
END IONS

BEGIN IONS
CHARGE=1+
PRECURSORTYPE=M+Na
FORMULA=C25H23BrN2O3S
ONTOLOGY=
INCHIKEY=IQQYFMUEUBWVGS-UHFFFAOYSA-N
INCHI=InChI=1S/C25H23BrN2O3S/c1-2-31-21-13-15(10-16(26)25(21)30)24-23-19(27-17-6-3-4-7-18(17)28-24)11-14(12-20(23)29)22-8-5-9-32-22/h3-10,13-14,24,27-28,30H,2,11-12H2,1H3
SMILES=CCOc1cc(C2Nc3ccccc3NC3=C2C(=O)CC(c2cccs2)C3)cc(Br)c1O
IONMODE=positive
INSTRUMENTTYPE=LC-ESI-Orbitrap
INSTRUMENT=Orbitrap
COMMENT=DB#=CCMSLIB00010111685; origin=GNPS
NUM_PEAKS=11
COMPOUND_NAME="11-(3-bromo-5-ethoxy-4-hydroxyphenyl)-3-(2-thienyl)-2,3,4-trihydro-5H,10H,11H- benzo[b]benzo[2,1-f]1,4-diazepin-1-one "
PRECURSOR_MZ=533.05
COLLISION_ENERGY=102040
PARENT_MASS=532.0427235480092
73.960777 0.0017601873060303682
75.836906 0.001489351310791951
92.38723 0.0014725782254766393
98.241829 0.0013911794290935085
99.226593 0.0014030192540219638
110.757149 0.001448405249581043
481.704285 0.0017399609384442568
533.049927 1.0
551.058899 0.007032856007502503
574.077271 0.03155954667283653
819.277283 0.001763147262262482
END IONS

BEGIN IONS
CHARGE=1+
PRECURSORTYPE=M+Na
FORMULA=C20H20N2O6
ONTOLOGY=
INCHIKEY=NSSFSSGVOUOLBK-UHFFFAOYSA-N
INCHI=InChI=1S/C20H20N2O6/c1-3-27-19(25)13-9-5-7-11-15(13)21-17(23)18(24)22-16-12-8-6-10-14(16)20(26)28-4-2/h5-12H,3-4H2,1-2H3,(H,21,23)(H,22,24)
SMILES=CCOC(=O)c1ccccc1NC(=O)C(=O)Nc1ccccc1C(=O)OCC
IONMODE=positive
INSTRUMENTTYPE=LC-ESI-Orbitrap
INSTRUMENT=Orbitrap
COMMENT=DB#=CCMSLIB00010113473; origin=GNPS
NUM_PEAKS=13
COMPOUND_NAME=ethyl 2-({N-[2-(ethoxycarbonyl)phenyl]carbamoyl}carbonylamino)benzoate
PRECURSOR_MZ=407.121
COLLISION_ENERGY=102040
PARENT_MASS=406.1137235480092
65.777893 0.0005018635213655902
73.945839 0.0006968516211169396
106.141586 0.0005520136640128732
132.460144 0.0005793518284162657
137.93251 0.0005788086860771254
188.067917 0.00878460314580801
200.412018 0.0005739204050248633
214.047043 0.012673321246605813
239.327332 0.0006371059638115123
353.06958 0.0005878610583961297
361.0784 0.008336872810910063
379.088257 0.0031413542421408207
407.120605 1.0
END IONS

BEGIN IONS
CHARGE=1+
PRECURSORTYPE=M+Na
FORMULA=C28H27ClN2O2
ONTOLOGY=
INCHIKEY=SHUGUJZESGPCLW-UHFFFAOYSA-N
INCHI=InChI=1S/C28H27ClN2O2/c1-17(2)33-26-14-8-4-10-20(26)28-27-24(30-22-12-6-7-13-23(22)31-28)15-18(16-25(27)32)19-9-3-5-11-21(19)29/h3-14,17-18,28,30-31H,15-16H2,1-2H3
SMILES=CC(C)Oc1ccccc1C1Nc2ccccc2NC2=C1C(=O)CC(c1ccccc1Cl)C2
IONMODE=positive
INSTRUMENTTYPE=LC-ESI-Orbitrap
INSTRUMENT=Orbitrap
COMMENT=DB#=CCMSLIB00010104641; origin=GNPS
NUM_PEAKS=11
COMPOUND_NAME="3-(2-chlorophenyl)-11-[2-(methylethoxy)phenyl]-2,3,4-trihydro-5H,10H,11H-benzo [b]benzo[2,1-f]1,4-diazepin-1-one "
PRECURSOR_MZ=481.165
COLLISION_ENERGY=102040
PARENT_MASS=480.15772354800924
53.37851 0.0004559037262550753
136.237823 0.0005351340236864905
304.667572 0.0005406991832103238
332.068207 0.005283240258481156
345.075012 0.011345749301865382
349.095551 0.005824818151089981
399.125183 0.00603600130986281
421.105591 0.0027866804057762842
438.111053 0.0006467301172959886
439.117432 0.007556022117701367
481.164154 1.0
END IONS

BEGIN IONS
CHARGE=1+
PRECURSORTYPE=M+Na
FORMULA=C27H38N2O4
ONTOLOGY=
INCHIKEY=SGTNSNPWRIOYBX-UHFFFAOYSA-N
INCHI=InChI=1S/C27H38N2O4/c1-20(2)27(19-28,22-10-12-24(31-5)26(18-22)33-7)14-8-15-29(3)16-13-21-9-11-23(30-4)25(17-21)32-6/h9-12,17-18,20H,8,13-16H2,1-7H3
SMILES=COc1ccc(CCN(C)CCCC(C#N)(c2ccc(OC)c(OC)c2)C(C)C)cc1OC
IONMODE=positive
INSTRUMENTTYPE=LC-ESI-Orbitrap
INSTRUMENT=Orbitrap
COMMENT=DB#=CCMSLIB00010104516; origin=GNPS
NUM_PEAKS=26
COMPOUND_NAME=VERAPAMIL
PRECURSOR_MZ=477.272
COLLISION_ENERGY=102040
PARENT_MASS=476.2647235480092
56.24984 0.00017448658751840638
63.877579 0.00016876571579649144
73.939636 0.00021381758060657176
78.58091 0.0001866434399274757
82.38372 0.00020201828268012216
100.028091 0.000187920420222546
159.041428 0.0010090698291645545
164.082764 0.0012155320032715214
165.090576 0.0020419936502410222
174.064957 0.0003172019052954636
187.072891 0.00117809094102006
216.099915 0.00024226870158073816
241.105713 0.0003225141433229561
242.114197 0.0002152477985370505
269.127136 0.0010669425761371408
273.172333 0.00024344352345220284
283.754944 0.0002474277019728222
303.205719 0.0004896453243417575
392.188171 0.0002835407047174104
419.196045 0.000983938856957571
428.278107 0.0009981388778387528
434.217743 0.001925124413636188
450.258148 0.002662912548916007
462.246918 0.003340069659785888
474.604279 0.0006976909540146115
477.272064 1.0
END IONS

BEGIN IONS
CHARGE=1+
PRECURSORTYPE=M+Na
FORMULA=C21H20O7
ONTOLOGY=
INCHIKEY=RHUOMQNPQOKXIP-UHFFFAOYSA-N
INCHI=InChI=1S/C21H20O7/c1-4-26-17(22)12-27-21-18(23)13-8-5-6-10-15(13)28-20(21)14-9-7-11-16(24-2)19(14)25-3/h5-11H,4,12H2,1-3H3
SMILES=CCOC(=O)COc1c(-c2cccc(OC)c2OC)oc2ccccc2c1=O
IONMODE=positive
INSTRUMENTTYPE=LC-ESI-Orbitrap
INSTRUMENT=Orbitrap
COMMENT=DB#=CCMSLIB00010104746; origin=GNPS
NUM_PEAKS=29
COMPOUND_NAME="ethyl 2-[2-(2,3-dimethoxyphenyl)-4-oxochromen-3-yloxy]acetate "
PRECURSOR_MZ=407.11
COLLISION_ENERGY=102040
PARENT_MASS=406.10272354800924
72.66613 0.00019881286102005162
78.87027 0.0001828934417029066
92.93409 0.00018757033325370626
137.020325 0.00043094857433955097
143.010406 0.0018396373034626266
144.017853 0.001204569394997309
172.048309 0.0004175474812420673
197.019165 0.001524486765116433
199.03656 0.012241673693996022
200.042816 0.00032090671256256243
281.075989 0.00022017366377610786
287.086884 0.0003082701113531902
289.046661 0.1165998980437642
291.060425 0.0009230115296169554
292.069885 0.0008331162775972577
293.077728 0.0018980534777365572
301.046631 0.0008050099581813943
303.060974 0.0016853448523973026
307.059357 0.0018481816245650492
319.056183 0.0011917978834547407
320.064758 0.01883186359018342
330.0737 0.0007771734594319232
361.066956 0.0011436798646147824
375.08197 0.0008305529812665311
379.075714 0.00604227406296679
392.085449 0.000432252707560447
404.990417 0.001245582136288937
407.109467 1.0
409.2453 0.0011250622386337146
END IONS

BEGIN IONS
CHARGE=1+
PRECURSORTYPE=M+Na
FORMULA=C28H32O16
ONTOLOGY=
INCHIKEY=LVAKTTFHRFASRZ-UHFFFAOYSA-N
INCHI=InChI=1S/C28H32O16/c1-9-18(32)21(35)23(37)27(41-9)44-28-24(38)22(36)19(33)16(43-28)8-40-26-20(34)17-13(31)6-11(29)7-15(17)42-25(26)10-3-4-12(30)14(5-10)39-2/h3-7,9,16,18-19,21-24,27-33,35-38H,8H2,1-2H3/t9-,16-,18-,19+,21+,22+,23+,24-,27-,28?/m0/s1
SMILES=COc1cc(-c2oc3cc(O)cc(O)c3c(=O)c2OCC2OC(OC3OC(C)C(O)C(O)C3O)C(O)C(O)C2O)ccc1O
IONMODE=positive
INSTRUMENTTYPE=LC-ESI-Orbitrap
INSTRUMENT=Orbitrap
COMMENT=DB#=CCMSLIB00010113677; origin=GNPS
NUM_PEAKS=15
COMPOUND_NAME=CCG-208435
PRECURSOR_MZ=647.158
COLLISION_ENERGY=102040
PARENT_MASS=646.1507235480093
65.24324 0.0006893043357949798
71.049522 0.001658955070428672
85.02858 0.003782669815005775
131.733139 0.0006470708292214588
148.060043 0.0006155390256710923
169.047058 0.0007380353049182734
185.042114 0.004068940370875162
226.510132 0.0007552344704912005
331.099396 0.039684016930094185
338.039093 0.03295933429291937
339.045959 0.006479881180520149
382.417725 0.0007875306814003637
501.098694 0.004057092056813812
548.964661 0.0007531323502545094
647.157532 1.0
END IONS

BEGIN IONS
CHARGE=1+
PRECURSORTYPE=M+Na
FORMULA=C19H18N2O4
ONTOLOGY=
INCHIKEY=BDWXGEIHUXSMQS-UHFFFAOYSA-N
INCHI=InChI=1S/C19H18N2O4/c1-13(22)21-16(19(23)20-11-14-5-3-2-4-6-14)9-15-7-8-17-18(10-15)25-12-24-17/h2-10H,11-12H2,1H3,(H,20,23)(H,21,22)/b16-9+
SMILES=CC(O)=NC(=Cc1ccc2c(c1)OCO2)C(O)=NCc1ccccc1
IONMODE=positive
INSTRUMENTTYPE=LC-ESI-Orbitrap
INSTRUMENT=Orbitrap
COMMENT=DB#=CCMSLIB00010110511; origin=GNPS
NUM_PEAKS=15
COMPOUND_NAME="(2E)-3-(2H-benzo[3,4-d]1,3-dioxolen-5-yl)-2-(acetylamino)-N-benzylprop-2-enami de "
PRECURSOR_MZ=361.116
COLLISION_ENERGY=102040
PARENT_MASS=360.1087235480092
50.287861 0.0004358134917181346
50.6726 0.0004109477542674993
72.615143 0.0004499040762734946
80.025627 0.000470625524149024
91.054459 0.0006370601934852763
122.061157 0.00050726104399296
130.85202 0.000600258902058336
159.065765 0.0010224791239701234
229.110779 0.0005099133893210277
236.321869 0.0005278167202854852
254.042435 0.000620648806767857
359.34964 0.0008427827279935322
361.115723 1.0
362.896393 0.0006861285820545299
380.011261 0.0005666072707084763
END IONS

BEGIN IONS
CHARGE=1+
PRECURSORTYPE=M+Na
FORMULA=C11H14O5
ONTOLOGY=
INCHIKEY=WKGYQHYYELHOBX-UHFFFAOYSA-N
INCHI=InChI=1S/C11H14O5/c1-14-6-9(13)11-8(12)4-7(15-2)5-10(11)16-3/h4-5,12H,6H2,1-3H3
SMILES=COCC(=O)c1c(O)cc(OC)cc1OC
IONMODE=positive
INSTRUMENTTYPE=LC-ESI-Orbitrap
INSTRUMENT=Orbitrap
COMMENT=DB#=CCMSLIB00010105365; origin=GNPS
NUM_PEAKS=14
COMPOUND_NAME="1-(2-hydroxy-4,6-dimethoxyphenyl)-2-methoxyethan-1-one "
PRECURSOR_MZ=249.073
COLLISION_ENERGY=102040
PARENT_MASS=248.06572354800926
52.04575 0.001482257088166484
66.739853 0.0018120838309637942
73.948067 0.0015529342473373361
74.518646 0.001554243083618278
76.940819 0.0014789849974641298
92.372566 0.0019148274790177183
104.276321 0.0016151039706820674
110.043793 0.0013245423163130083
134.075668 0.0015424635570898025
143.39566 0.0015058161412234347
202.962372 0.002906270961831062
232.096329 0.005330890172275575
249.073273 1.0
267.084381 0.00727320321319307
END IONS

BEGIN IONS
CHARGE=1+
PRECURSORTYPE=M+Na
FORMULA=C20H21N5O3S
ONTOLOGY=
INCHIKEY=GGNDGAWAIQTBPJ-UHFFFAOYSA-N
INCHI=InChI=1S/C20H21N5O3S/c1-5-27-15-9-7-6-8-13(15)19-23-14(11(2)28-19)10-29-20-24-16-17(25(20)4)21-12(3)22-18(16)26/h6-9H,5,10H2,1-4H3,(H,21,22,26)
SMILES=CCOc1ccccc1-c1nc(CSc2nc3c(O)nc(C)nc3n2C)c(C)o1
IONMODE=positive
INSTRUMENTTYPE=LC-ESI-Orbitrap
INSTRUMENT=Orbitrap
COMMENT=DB#=CCMSLIB00010105597; origin=GNPS
NUM_PEAKS=35
COMPOUND_NAME="8-{[2-(2-ethoxyphenyl)-5-methyl(1,3-oxazol-4-yl)]methylthio}-2,9-dimethylhydro purin-6-one "
PRECURSOR_MZ=434.126
COLLISION_ENERGY=102040
PARENT_MASS=433.1187235480092
51.897442 0.0004040319198138783
64.195152 0.0003776492384827482
65.276917 0.0003930481096270404
69.03437 0.00036041973230731625
72.716049 0.0003701113295309967
91.054497 0.0004961020934388425
95.368683 0.0003904636837007256
96.044594 0.0004885641844870911
103.054893 0.000432245236176148
107.048897 0.0006785194900712279
121.064934 0.0004972866219884035
122.059563 0.0007541139484159354
131.049057 0.2274568333567547
147.080612 0.00042815322845948296
165.947708 0.00038615630715686767
170.057114 0.0008263701899391529
172.075317 0.001942196083625562
173.059067 0.0031881047489364816
173.083252 0.0005860185787918778
174.091568 0.0044406898478903814
188.070724 0.0004538898033090343
198.091187 0.0017151973397642466
209.316589 0.0006234927547234422
209.334198 0.0005372375394326862
210.052109 0.029384168991303944
216.101562 0.06338046141694383
218.022919 0.035151853867943374
219.030777 0.07475775045106309
239.090546 0.00048608744297437274
271.08017 0.0007232085217137544
405.085449 0.03868465642480209
406.094086 0.007444008143095356
431.788605 0.0004041396042274747
434.124817 1.0
436.474182 0.0006260771806497569
END IONS

BEGIN IONS
CHARGE=1+
PRECURSORTYPE=M+Na
FORMULA=C17H20N4O6
ONTOLOGY=
INCHIKEY=AUNGANRZJHBGPY-UHFFFAOYSA-N
INCHI=InChI=1S/C17H20N4O6/c1-7-3-9-10(4-8(7)2)21(5-11(23)14(25)12(24)6-22)15-13(18-9)16(26)20-17(27)19-15/h3-4,11-12,14,22-25H,5-6H2,1-2H3,(H,20,26,27)
SMILES=Cc1cc2nc3c(O)nc(=O)nc-3n(CC(O)C(O)C(O)CO)c2cc1C
IONMODE=positive
INSTRUMENTTYPE=LC-ESI-Orbitrap
INSTRUMENT=Orbitrap
COMMENT=DB#=CCMSLIB00010112850; origin=GNPS
NUM_PEAKS=16
COMPOUND_NAME=83-88-5
PRECURSOR_MZ=399.127
COLLISION_ENERGY=102040
PARENT_MASS=398.11972354800923
85.100693 0.0005797216733346712
106.336746 0.00055541594829188
143.031845 0.0007759753375231582
240.074158 0.0009059406606858513
265.069458 0.0026135685002624414
279.0849 0.01839340764457236
320.897247 0.001174508878720659
338.910217 0.0013974787530801481
356.120422 0.011133227312162444
375.84787 0.0007317831101726289
381.118866 0.0011435743195752886
382.100922 0.004264549939326081
397.064026 0.0008290060103437934
398.617523 0.0014119416638494122
399.127075 1.0
401.205353 0.0010079845311134373
END IONS

BEGIN IONS
CHARGE=1+
PRECURSORTYPE=M+Na
FORMULA=C18H25N3O4S
ONTOLOGY=
INCHIKEY=DQCDVLOLHGLVKW-UHFFFAOYSA-N
INCHI=InChI=1S/C18H25N3O4S/c1-18(2,3)16-20-21-17(26-16)19-14(22)8-7-11-9-12(23-4)15(25-6)13(10-11)24-5/h9-10H,7-8H2,1-6H3,(H,19,21,22)
SMILES=COc1cc(CCC(O)=Nc2nnc(C(C)(C)C)s2)cc(OC)c1OC
IONMODE=positive
INSTRUMENTTYPE=LC-ESI-Orbitrap
INSTRUMENT=Orbitrap
COMMENT=DB#=CCMSLIB00010105134; origin=GNPS
NUM_PEAKS=13
COMPOUND_NAME="N-[5-(tert-butyl)(1,3,4-thiadiazol-2-yl)]-3-(3,4,5-trimethoxyphenyl)propanamid e "
PRECURSOR_MZ=402.146
COLLISION_ENERGY=102040
PARENT_MASS=401.13872354800924
51.897579 0.000685050489201699
63.71629 0.000772748159189483
66.094887 0.0008186983760520919
66.711769 0.0006668385130061529
70.143944 0.0009638338171181369
73.951118 0.0008332679570085288
138.071442 0.009844273594315622
180.10553 0.005733970659105428
221.05751 0.0008918264650834389
245.079224 0.0017598372689880866
310.658936 0.000786197003149271
387.121857 0.003128537326145673
402.145355 1.0
END IONS

BEGIN IONS
CHARGE=1+
PRECURSORTYPE=M+Na
FORMULA=C10H9NO3
ONTOLOGY=
INCHIKEY=ILGMGHZPXRDCCS-UHFFFAOYSA-N
INCHI=InChI=1S/C10H9NO3/c12-9(13)5-7-6-3-1-2-4-8(6)11-10(7)14/h1-4,7H,5H2,(H,11,14)(H,12,13)
SMILES=C1=CC=C2C(=C1)C(C(=O)N2)CC(=O)O
IONMODE=positive
INSTRUMENTTYPE=LC-ESI-Orbitrap
INSTRUMENT=Orbitrap
COMMENT=DB#=CCMSLIB00010102113; origin=GNPS
NUM_PEAKS=10
COMPOUND_NAME=2-oxindole-3-acetic acid
PRECURSOR_MZ=214.047
COLLISION_ENERGY=102040
PARENT_MASS=213.03972354800925
50.176338 0.011352116565526739
59.658882 0.012600492920817075
73.993851 0.012806494039935735
86.834335 0.011141933060362635
136.458252 0.012268360360798715
139.146957 0.012933993609364241
158.061935 0.011188938956162497
169.211136 0.011323462961670874
203.547714 0.011190799288501262
214.047119 1.0
END IONS

BEGIN IONS
CHARGE=1+
PRECURSORTYPE=M+Na
FORMULA=C10H9NO3
ONTOLOGY=
INCHIKEY=ILGMGHZPXRDCCS-UHFFFAOYSA-N
INCHI=InChI=1S/C10H9NO3/c12-9(13)5-7-6-3-1-2-4-8(6)11-10(7)14/h1-4,7H,5H2,(H,11,14)(H,12,13)
SMILES=C1=CC=C2C(=C1)C(C(=O)N2)CC(=O)O
IONMODE=positive
INSTRUMENTTYPE=LC-ESI-Orbitrap
INSTRUMENT=Orbitrap
COMMENT=DB#=CCMSLIB00010102116; origin=GNPS
NUM_PEAKS=9
COMPOUND_NAME="(2-Oxo-2,3-dihydro-1H-indol-3-yl)acetic acid "
PRECURSOR_MZ=214.047
COLLISION_ENERGY=102040
PARENT_MASS=213.03972354800925
57.172184 0.009176238321826043
73.990105 0.01220956902821138
102.00103 0.0216838874919583
122.38311 0.008978787089526399
136.274017 0.012108584741108876
149.453735 0.009150113408164923
202.423538 0.00925901685593508
214.047577 1.0
214.124771 0.020232246513343728
END IONS

BEGIN IONS
CHARGE=1+
PRECURSORTYPE=M+Na
FORMULA=C16H15NO4
ONTOLOGY=
INCHIKEY=HONCWUVXYYRGOG-UHFFFAOYSA-N
INCHI=InChI=1S/C16H15NO4/c1-2-19-13-6-4-12(5-7-13)17-16(18)11-3-8-14-15(9-11)21-10-20-14/h3-9H,2,10H2,1H3,(H,17,18)
SMILES=CCOc1ccc(NC(=O)c2ccc3c(c2)OCO3)cc1
IONMODE=positive
INSTRUMENTTYPE=LC-ESI-Orbitrap
INSTRUMENT=Orbitrap
COMMENT=DB#=CCMSLIB00010105879; origin=GNPS
NUM_PEAKS=15
COMPOUND_NAME="2H-benzo[3,4-d]1,3-dioxolen-5-yl-N-(4-ethoxyphenyl)carboxamide "
PRECURSOR_MZ=308.089
COLLISION_ENERGY=102040
PARENT_MASS=307.0817235480092
51.042622 0.0007073787175962716
57.89938 0.0007896828081407475
66.75119 0.0008732339303601397
77.09581 0.0009022274168019437
87.092033 0.0010855410730146399
98.067963 0.0008242879371196749
128.775131 0.0007977885140277034
173.880524 0.00088321018375947
183.314743 0.0008436169280808775
201.884918 0.0007248371610450999
211.744492 0.001052494733629358
242.685226 0.0008501638443741881
297.124298 0.0014166279827049176
308.088959 1.0
326.100006 0.009222734509762232
END IONS

BEGIN IONS
CHARGE=1+
PRECURSORTYPE=M+Na
FORMULA=C16H15N5O3S
ONTOLOGY=
INCHIKEY=GMUVRLXQBFCUME-UHFFFAOYSA-N
INCHI=InChI=1S/C16H15N5O3S/c1-9(22)10-3-5-11(6-4-10)19-12(23)7-25-16-20-13-14(21(16)2)17-8-18-15(13)24/h3-6,8H,7H2,1-2H3,(H,19,23)(H,17,18,24)
SMILES=CC(=O)c1ccc(NC(=O)CSc2nc3c(O)ncnc3n2C)cc1
IONMODE=positive
INSTRUMENTTYPE=LC-ESI-Orbitrap
INSTRUMENT=Orbitrap
COMMENT=DB#=CCMSLIB00010112624; origin=GNPS
NUM_PEAKS=14
COMPOUND_NAME=N-(4-acetylphenyl)-2-(9-methyl-6-oxohydropurin-8-ylthio)acetamide
PRECURSOR_MZ=380.079
COLLISION_ENERGY=102040
PARENT_MASS=379.07172354800923
57.063641 0.00041296387566597313
82.395523 0.0005186698677167085
82.834244 0.0005251949289544083
84.712334 0.00043674409884336766
92.376068 0.0003867186293543365
93.296127 0.0004387741178950964
173.043228 0.0024031075531643865
183.145798 0.00040861383484083996
204.007507 0.013818774689200458
245.009903 0.004116588634184332
276.670349 0.0005620252746072022
337.061676 0.0007574871090165181
379.568756 0.002019288951026805
380.078094 1.0
END IONS

BEGIN IONS
CHARGE=1+
PRECURSORTYPE=M+Na
FORMULA=C25H34O8
ONTOLOGY=
INCHIKEY=VWQWXZAWFPZJDA-UHFFFAOYSA-N
INCHI=InChI=1S/C25H34O8/c1-23-9-7-15(26)11-14(23)3-4-16-17-8-10-25(32,24(17,2)12-18(27)22(16)23)19(28)13-33-21(31)6-5-20(29)30/h11,16-18,22,27,32H,3-10,12-13H2,1-2H3,(H,29,30)/t16-,17-,18-,22+,23-,24-,25-/m0/s1
SMILES=CC12CCC(=O)C=C1CCC1C2C(O)CC2(C)C1CCC2(O)C(=O)COC(=O)CCC(=O)O
IONMODE=positive
INSTRUMENTTYPE=LC-ESI-Orbitrap
INSTRUMENT=Orbitrap
COMMENT=DB#=CCMSLIB00010110530; origin=GNPS
NUM_PEAKS=16
COMPOUND_NAME=2203-97-6
PRECURSOR_MZ=485.215
COLLISION_ENERGY=102040
PARENT_MASS=484.2077235480092
57.545509 0.0003944614320139773
58.22995 0.0003575092735045473
65.619583 0.0003342854710976919
66.673576 0.00039686389433192786
90.384041 0.0003837075530669605
93.322777 0.0004255790391798131
100.734917 0.00042901112820545675
123.16674 0.00043026956084819275
141.015701 0.0006347076638090331
185.396774 0.00043129918755588587
208.267822 0.0008422346468929527
211.101013 0.0004427394843080314
367.186768 0.0020847652771434767
385.195587 0.00041985889080374035
467.200592 0.004046661767168911
485.213959 1.0
END IONS

BEGIN IONS
CHARGE=1+
PRECURSORTYPE=M+Na
FORMULA=C17H14N2O3S
ONTOLOGY=
INCHIKEY=JOIUJUJSHIHBDT-UHFFFAOYSA-N
INCHI=InChI=1S/C17H14N2O3S/c1-22-14-9-11(7-8-13(14)20)10-15-16(21)19-17(23-15)18-12-5-3-2-4-6-12/h2-10,20H,1H3,(H,18,19,21)/b15-10-
SMILES=COc1cc(C=C2SC(=Nc3ccccc3)N=C2O)ccc1O
IONMODE=positive
INSTRUMENTTYPE=LC-ESI-Orbitrap
INSTRUMENT=Orbitrap
COMMENT=DB#=CCMSLIB00010104974; origin=GNPS
NUM_PEAKS=10
COMPOUND_NAME="5-[(4-hydroxy-3-methoxyphenyl)methylene]-2-(phenylamino)-1,3-thiazolin-4-one "
PRECURSOR_MZ=349.062
COLLISION_ENERGY=102040
PARENT_MASS=348.05472354800924
50.918411 0.0016604746955393643
55.211769 0.0014436809099263245
71.815712 0.0014947724390198436
74.035492 0.0015479352463198565
75.257362 0.0018662216640511027
96.43251 0.0021168463270368775
297.966003 0.0017322790066978233
309.188477 0.0016287150963731228
349.061005 1.0
367.072479 0.0033720409201722476
END IONS

BEGIN IONS
CHARGE=1+
PRECURSORTYPE=M+Na
FORMULA=C15H15N5O2S
ONTOLOGY=
INCHIKEY=OTWOCXUXCQGJON-UHFFFAOYSA-N
INCHI=InChI=1S/C15H15N5O2S/c1-9-4-3-5-10(6-9)18-11(21)7-23-15-19-12-13(20(15)2)16-8-17-14(12)22/h3-6,8H,7H2,1-2H3,(H,18,21)(H,16,17,22)
SMILES=Cc1cccc(N=C(O)CSc2nc3c(O)ncnc3n2C)c1
IONMODE=positive
INSTRUMENTTYPE=LC-ESI-Orbitrap
INSTRUMENT=Orbitrap
COMMENT=DB#=CCMSLIB00010110733; origin=GNPS
NUM_PEAKS=19
COMPOUND_NAME=2-(9-methyl-6-oxohydropurin-8-ylthio)-N-(3-methylphenyl)acetamide
PRECURSOR_MZ=352.084
COLLISION_ENERGY=102040
PARENT_MASS=351.0767235480092
50.38036 0.0002935068260681804
92.381203 0.00045300961139913237
106.491043 0.0003552463395738346
115.483994 0.00035199118068952943
136.213562 0.00043174257335500544
157.979752 0.0004305490150974269
170.058182 0.0015504321765945396
173.04364 0.004029344172289049
196.52475 0.00036739893274190716
202.029907 0.0007459739109865952
202.999847 0.0005237550644846975
204.00737 0.020722883983967256
213.038437 0.00184610910858559
217.015305 0.0017338061270770627
245.010025 0.010573298582703821
350.380798 0.0006903106940649773
351.57312 0.0007831912275638174
352.083221 1.0
353.802032 0.0006229289051598608
END IONS

BEGIN IONS
CHARGE=1+
PRECURSORTYPE=M+Na
FORMULA=C20H19NO5S
ONTOLOGY=
INCHIKEY=OUDDLDSJJYPMJB-UHFFFAOYSA-N
INCHI=InChI=1S/C20H19NO5S/c1-26-20(23)18(19(22)15-8-3-2-4-9-15)21-27(24,25)17-12-11-14-7-5-6-10-16(14)13-17/h2-13,18-19,21-22H,1H3
SMILES=COC(=O)C(NS(=O)(=O)c1ccc2ccccc2c1)C(O)c1ccccc1
IONMODE=positive
INSTRUMENTTYPE=LC-ESI-Orbitrap
INSTRUMENT=Orbitrap
COMMENT=DB#=CCMSLIB00010111313; origin=GNPS
NUM_PEAKS=15
COMPOUND_NAME=methyl 3-hydroxy-2-[(2-naphthylsulfonyl)amino]-3-phenylpropanoate
PRECURSOR_MZ=408.088
COLLISION_ENERGY=102040
PARENT_MASS=407.08072354800925
78.434868 0.0005124517042194254
80.869743 0.0005364752687349374
87.33744 0.00043900386366244596
110.021294 0.014718947247618684
124.150017 0.0004618032975020083
202.726715 0.0005366282850694312
215.013626 0.014027925481045101
270.020966 0.0008022646417505069
287.929382 0.00045690677479820973
302.044952 0.0008542901954783673
341.190033 0.00047021919589916225
405.966766 0.0006911747829080754
408.087097 1.0
410.223755 0.0006402203435216709
426.094574 0.0020571516009333995
END IONS

BEGIN IONS
CHARGE=1+
PRECURSORTYPE=M+Na
FORMULA=C11H15N3O3S
ONTOLOGY=
INCHIKEY=IQOMOUXYZRGOAZ-UHFFFAOYSA-N
INCHI=InChI=1S/C11H15N3O3S/c1-12-11(18)14-13-10(15)7-4-5-8(16-2)9(6-7)17-3/h4-6H,1-3H3,(H,13,15)(H2,12,14,18)
SMILES=CN=C(S)NN=C(O)c1ccc(OC)c(OC)c1
IONMODE=positive
INSTRUMENTTYPE=LC-ESI-Orbitrap
INSTRUMENT=Orbitrap
COMMENT=DB#=CCMSLIB00010110603; origin=GNPS
NUM_PEAKS=25
COMPOUND_NAME="(3,4-dimethoxyphenyl)-N-{[(methylamino)thioxomethyl]amino}carboxamide "
PRECURSOR_MZ=292.073
COLLISION_ENERGY=102040
PARENT_MASS=291.0657235480092
53.674191 0.001572148607208323
61.233379 0.0014148720694138457
81.070374 0.0024343940967639275
82.407509 0.0018410606483000565
84.081078 0.0015345255922849382
109.711647 0.0014716149771671473
123.117393 0.0060098140559583756
128.591934 0.0013988360302661736
143.094055 0.009749295031048238
184.13266 0.0021802845533469683
190.124496 0.0021778174704011723
202.107422 0.007253223860639419
203.054825 0.003581587666558937
211.428879 0.0022302429829993316
213.639404 0.0031214766971680353
216.123154 0.0016214902661242374
219.074173 0.015053523364509038
258.084686 0.007606633492624655
261.029785 1.0
274.060211 0.0019101389707823367
279.039215 0.00857249646590368
292.071625 0.13556620787147486
296.048645 0.001528974655656898
302.055298 0.01668426519168001
310.048981 0.002322141822730222
END IONS

BEGIN IONS
CHARGE=1+
PRECURSORTYPE=M+Na
FORMULA=C23H26N2O2
ONTOLOGY=
INCHIKEY=QQBFAVBJOBJSKG-UHFFFAOYSA-N
INCHI=InChI=1S/C23H26N2O2/c1-4-27-16-9-7-8-15(12-16)22-21-19(13-23(2,3)14-20(21)26)24-17-10-5-6-11-18(17)25-22/h5-12,22,24-25H,4,13-14H2,1-3H3
SMILES=CCOc1cccc(C2Nc3ccccc3NC3=C2C(=O)CC(C)(C)C3)c1
IONMODE=positive
INSTRUMENTTYPE=LC-ESI-Orbitrap
INSTRUMENT=Orbitrap
COMMENT=DB#=CCMSLIB00010103859; origin=GNPS
NUM_PEAKS=16
COMPOUND_NAME="11-(3-ethoxyphenyl)-3,3-dimethyl-2,3,4-trihydro-5H,10H,11H-benzo[1,2-f]benzo[b ]1,4-diazepin-1-one "
PRECURSOR_MZ=385.189
COLLISION_ENERGY=102040
PARENT_MASS=384.18172354800924
53.506451 0.0007043778438102902
66.75602 0.0009840613906782396
92.397079 0.0008320655370357177
97.847778 0.000663026030686957
110.194832 0.0006890106159604028
134.213913 0.0006918046573876551
141.808273 0.000781493387202452
142.39119 0.0008253598376103123
193.137833 0.0008745349667299517
240.157501 0.0009804291368228117
290.151154 0.0009647825048301991
344.113281 0.0012478189014108513
383.237823 0.0012120551711420225
385.188019 1.0
387.152954 0.0008016104854786682
403.19931 0.0011558949384542524
END IONS

BEGIN IONS
CHARGE=1+
PRECURSORTYPE=M+Na
FORMULA=C18H25NO5
ONTOLOGY=
INCHIKEY=YWDCGKQJXZBZGP-UHFFFAOYSA-N
INCHI=InChI=1S/C18H25NO5/c1-23-15-8-7-12(11-16(15)24-2)9-10-19-17(20)13-5-3-4-6-14(13)18(21)22/h7-8,11,13-14H,3-6,9-10H2,1-2H3,(H,19,20)(H,21,22)
SMILES=COc1ccc(CCN=C(O)C2CCCCC2C(=O)O)cc1OC
IONMODE=positive
INSTRUMENTTYPE=LC-ESI-Orbitrap
INSTRUMENT=Orbitrap
COMMENT=DB#=CCMSLIB00010107887; origin=GNPS
NUM_PEAKS=15
COMPOUND_NAME="2-{N-[2-(3,4-dimethoxyphenyl)ethyl]carbamoyl}cyclohexanecarboxylic acid "
PRECURSOR_MZ=358.162
COLLISION_ENERGY=102040
PARENT_MASS=357.1547235480092
55.766548 0.000885361573138272
55.879871 0.0009205216863089512
73.534668 0.0009126667674091186
73.963814 0.001034605032235091
169.485367 0.0011172687025619004
177.05249 0.021947017449889358
197.999924 0.0010589178764488585
201.626984 0.0010357271635064956
204.099304 0.8215519524336035
204.858276 0.001109787827419203
211.781235 0.0011172687025619004
222.110123 0.006343408077250509
245.12587 0.012251055177438878
279.419556 0.0010723834517057144
358.161774 1.0
END IONS

BEGIN IONS
CHARGE=1+
PRECURSORTYPE=M+Na
FORMULA=C24H32O6
ONTOLOGY=
INCHIKEY=JEJFTTRHGBKKEI-UHFFFAOYSA-N
INCHI=InChI=1S/C24H32O6/c1-13-9-15-11-17(25-3)21(27-5)23(29-7)19(15)20-16(10-14(13)2)12-18(26-4)22(28-6)24(20)30-8/h11-14H,9-10H2,1-8H3
SMILES=COc1cc2c(c(OC)c1OC)-c1c(cc(OC)c(OC)c1OC)CC(C)C(C)C2
IONMODE=positive
INSTRUMENTTYPE=LC-ESI-Orbitrap
INSTRUMENT=Orbitrap
COMMENT=DB#=CCMSLIB00010106470; origin=GNPS
NUM_PEAKS=15
COMPOUND_NAME=Schizandrin A
PRECURSOR_MZ=439.209
COLLISION_ENERGY=102040
PARENT_MASS=438.2017235480092
56.99361 0.00029577845116272666
82.412071 0.00038738594717061567
87.509567 0.0002686640008970863
104.300774 0.0003185306397137056
125.951973 0.0003146815852595926
139.24617 0.00028311933873586615
208.828705 0.0006252575124347981
208.849319 0.0005895896078266844
281.691162 0.00030937844356725917
393.165833 0.007868322649641187
409.161285 0.003913975172572357
424.183899 0.006815306885539299
436.821869 0.00038439223815075
439.207947 1.0
457.218292 0.03198949156813301
END IONS

BEGIN IONS
CHARGE=1+
PRECURSORTYPE=M+Na
FORMULA=C18H21NO3
ONTOLOGY=
INCHIKEY=BWFSLFAIZRXQIP-UHFFFAOYSA-N
INCHI=InChI=1S/C18H21NO3/c1-5-13-8-6-7-12(2)17(13)19-18(20)14-9-10-15(21-3)16(11-14)22-4/h6-11H,5H2,1-4H3,(H,19,20)
SMILES=CCc1cccc(C)c1N=C(O)c1ccc(OC)c(OC)c1
IONMODE=positive
INSTRUMENTTYPE=LC-ESI-Orbitrap
INSTRUMENT=Orbitrap
COMMENT=DB#=CCMSLIB00010104886; origin=GNPS
NUM_PEAKS=30
COMPOUND_NAME="(3,4-dimethoxyphenyl)-N-(6-ethyl-2-methylphenyl)carboxamide "
PRECURSOR_MZ=322.141
COLLISION_ENERGY=102040
PARENT_MASS=321.13372354800924
50.681999 0.0005984626604253836
51.524712 0.0006425643943905151
52.492271 0.0006169981718020331
55.674549 0.0006674914614142851
57.939732 0.00067835710601439
70.814087 0.0005865317565507586
75.815018 0.0006504473130219638
82.704376 0.0004944933552322233
96.148216 0.0006604607502024525
121.064774 0.019481887716133118
122.068047 0.010540101365811527
130.065109 0.01180158139869821
130.530289 0.0005920711047782631
131.06871 0.00849352524760354
137.697235 0.0007196891658657693
142.216431 0.0006329770609198343
144.081268 0.004189877778542397
156.08078 0.02889430561393768
157.08844 0.14974946167122563
158.097229 0.002689992720018118
173.1073 0.057301787739419685
174.110779 0.06665987741422373
179.871185 0.0006319118016453142
293.738403 0.0005991018159900957
299.059814 0.0010230750072490894
305.13559 0.0006681306169789971
307.115173 0.0010207314368451451
322.140228 1.0
340.149811 0.0025945454890211185
363.167542 0.023650460309185113
END IONS

BEGIN IONS
CHARGE=1+
PRECURSORTYPE=M+Na
FORMULA=C20H21N5O4S
ONTOLOGY=
INCHIKEY=NJWNAPZNQCBEIO-UHFFFAOYSA-N
INCHI=InChI=1S/C20H21N5O4S/c1-10-13(23-19(29-10)12-6-7-14(27-4)15(8-12)28-5)9-30-20-24-16-17(25(20)3)21-11(2)22-18(16)26/h6-8H,9H2,1-5H3,(H,21,22,26)
SMILES=COc1ccc(-c2nc(CSc3nc4c(O)nc(C)nc4n3C)c(C)o2)cc1OC
IONMODE=positive
INSTRUMENTTYPE=LC-ESI-Orbitrap
INSTRUMENT=Orbitrap
COMMENT=DB#=CCMSLIB00010107964; origin=GNPS
NUM_PEAKS=13
COMPOUND_NAME="8-{[2-(3,4-dimethoxyphenyl)-5-methyl(1,3-oxazol-4-yl)]methylthio}-2,9-dimethyl hydropurin-6-one "
PRECURSOR_MZ=450.121
COLLISION_ENERGY=102040
PARENT_MASS=449.1137235480092
61.705551 0.0009514982458329248
83.009506 0.0010132877041948507
84.912643 0.0008992148579882184
92.368301 0.0011826145852828205
164.070389 0.035380703270979454
218.023026 0.030331791567521322
219.030853 0.1130854031316561
232.096497 0.25139546144545744
381.213989 0.0010290321334889953
399.194183 0.000974669292718647
435.093658 0.0013067876314139984
450.119904 1.0
474.473297 0.0010771566154824182
END IONS

BEGIN IONS
CHARGE=1+
PRECURSORTYPE=M+Na
FORMULA=C16H21N3O3S
ONTOLOGY=
INCHIKEY=RQNWUUHQIGHHPC-UHFFFAOYSA-N
INCHI=InChI=1S/C16H21N3O3S/c1-16(2,3)9-13-18-19-15(23-13)17-14(20)10-6-11(21-4)8-12(7-10)22-5/h6-8H,9H2,1-5H3,(H,17,19,20)
SMILES=COc1cc(OC)cc(C(O)=Nc2nnc(CC(C)(C)C)s2)c1
IONMODE=positive
INSTRUMENTTYPE=LC-ESI-Orbitrap
INSTRUMENT=Orbitrap
COMMENT=DB#=CCMSLIB00010104049; origin=GNPS
NUM_PEAKS=13
COMPOUND_NAME="(3,5-dimethoxyphenyl)-N-[5-(2,2-dimethylpropyl)(1,3,4-thiadiazol-2-yl)]carboxa mide "
PRECURSOR_MZ=358.12
COLLISION_ENERGY=102040
PARENT_MASS=357.1127235480092
53.281811 0.0006500370680068619
63.94025 0.0008351077127315673
66.753563 0.0008994918234873236
106.401543 0.0007079558287285673
159.027695 0.0007475560976871288
160.293381 0.0007642582519417602
162.461121 0.0007074170495590631
164.015076 0.0007303151642629932
208.537277 0.002946852667603424
288.730499 0.0008356464919010715
343.096497 0.0009808474780824633
358.118713 1.0
376.128784 0.006246336301647371
END IONS

BEGIN IONS
CHARGE=1+
PRECURSORTYPE=M+Na
FORMULA=C23H18N2O2S
ONTOLOGY=
INCHIKEY=KDDXEPFKCPQIAW-UHFFFAOYSA-N
INCHI=InChI=1S/C23H18N2O2S/c1-16-13-22(27-20-12-11-17-7-5-6-10-19(17)14-20)25-23(24-16)28-15-21(26)18-8-3-2-4-9-18/h2-14H,15H2,1H3
SMILES=Cc1cc(Oc2ccc3ccccc3c2)nc(SCC(=O)c2ccccc2)n1
IONMODE=positive
INSTRUMENTTYPE=LC-ESI-Orbitrap
INSTRUMENT=Orbitrap
COMMENT=DB#=CCMSLIB00010103669; origin=GNPS
NUM_PEAKS=7
COMPOUND_NAME=2-(4-methyl-6-(2-naphthyloxy)pyrimidin-2-ylthio)-1-phenylethan-1-one
PRECURSOR_MZ=409.098
COLLISION_ENERGY=102040
PARENT_MASS=408.09072354800924
77.720451 0.0007312291986023722
80.948433 0.001035376474309703
92.374023 0.0008677910354547582
101.103928 0.0009130217075332554
376.117279 0.0009779683135946874
406.963501 0.0010716190000136271
409.097565 1.0
END IONS

BEGIN IONS
CHARGE=1+
PRECURSORTYPE=M+Na
FORMULA=C14H11F3N4OS
ONTOLOGY=
INCHIKEY=WGCHSAGAVGYEMC-UHFFFAOYSA-N
INCHI=InChI=1S/C14H11F3N4OS/c1-21-11-10(12(22)19-7-18-11)20-13(21)23-6-8-3-2-4-9(5-8)14(15,16)17/h2-5,7H,6H2,1H3,(H,18,19,22)
SMILES=Cn1c(SCc2cccc(C(F)(F)F)c2)nc2c(O)ncnc21
IONMODE=positive
INSTRUMENTTYPE=LC-ESI-Orbitrap
INSTRUMENT=Orbitrap
COMMENT=DB#=CCMSLIB00010110273; origin=GNPS
NUM_PEAKS=12
COMPOUND_NAME=9-methyl-8-{[3-(trifluoromethyl)phenyl]methylthio}hydropurin-6-one
PRECURSOR_MZ=363.05
COLLISION_ENERGY=102040
PARENT_MASS=362.04272354800923
50.380089 0.0007702188447677476
54.566818 0.0008545318542651131
68.335037 0.0007960228263221015
72.813477 0.000730612733544786
92.38607 0.0009049396321852462
104.298866 0.0007204111594419019
122.159912 0.0008752350487680249
127.376556 0.0008053242615335546
130.196106 0.0008956381969737931
204.00737 0.04990580046501175
272.739105 0.0008962382895680804
363.049042 1.0
END IONS

BEGIN IONS
CHARGE=1+
PRECURSORTYPE=M+Na
FORMULA=C33H40N2O9
ONTOLOGY=
INCHIKEY=QEVHRUUCFGRFIF-UHFFFAOYSA-N
INCHI=InChI=1S/C33H40N2O9/c1-38-19-7-8-20-21-9-10-35-16-18-13-27(44-32(36)17-11-25(39-2)30(41-4)26(12-17)40-3)31(42-5)28(33(37)43-6)22(18)15-24(35)29(21)34-23(20)14-19/h7-8,11-12,14,18,22,24,27-28,31,34H,9-10,13,15-16H2,1-6H3
SMILES=COC(=O)C1C2CC3c4[nH]c5cc(OC)ccc5c4CCN3CC2CC(OC(=O)c2cc(OC)c(OC)c(OC)c2)C1OC
IONMODE=positive
INSTRUMENTTYPE=LC-ESI-Orbitrap
INSTRUMENT=Orbitrap
COMMENT=DB#=CCMSLIB00010105058; origin=GNPS
NUM_PEAKS=31
COMPOUND_NAME=
PRECURSOR_MZ=631.263
COLLISION_ENERGY=102040
PARENT_MASS=630.2557235480093
50.743599 0.0009643779616646665
54.373508 0.0009975520979440184
58.665138 0.001149454721959998
82.776413 0.0008433214643645756
92.364403 0.0009280028122355526
104.275833 0.001083106449401294
112.493011 0.0010717574027794105
118.638992 0.0009437168767889298
135.041412 0.0018912167691184875
157.953796 0.0010944554960231776
166.615936 0.0010883444709190865
174.091156 0.0020381723728121076
206.237595 0.001187866879757142
227.116882 0.004114756903421359
235.056152 0.0011101695605765548
251.116714 0.0022241221366937377
265.132446 0.0015181532365734958
305.165131 0.002144678810340553
333.159088 0.019417345766456408
335.108978 0.011535578388156019
355.141113 0.007145243352659693
365.185211 0.048648415847692306
387.166962 0.035303392026334444
397.212494 0.009318149278957239
419.19339 0.021969426250403035
567.208252 0.022078260697494946
577.255615 0.002411526906552532
599.235352 0.17616077466846233
616.23645 0.0016069086011805337
631.261353 1.0
649.274536 0.005150139156771656
END IONS

BEGIN IONS
CHARGE=1+
PRECURSORTYPE=M+Na
FORMULA=C33H40N2O9
ONTOLOGY=
INCHIKEY=QEVHRUUCFGRFIF-UHFFFAOYSA-N
INCHI=InChI=1S/C33H40N2O9/c1-38-19-7-8-20-21-9-10-35-16-18-13-27(44-32(36)17-11-25(39-2)30(41-4)26(12-17)40-3)31(42-5)28(33(37)43-6)22(18)15-24(35)29(21)34-23(20)14-19/h7-8,11-12,14,18,22,24,27-28,31,34H,9-10,13,15-16H2,1-6H3/t18-,22+,24+,27-,28+,31+/m1/s1
SMILES=COC(=O)C1C2CC3c4[nH]c5cc(OC)ccc5c4CCN3CC2CC(OC(=O)c2cc(OC)c(OC)c(OC)c2)C1OC
IONMODE=positive
INSTRUMENTTYPE=LC-ESI-Orbitrap
INSTRUMENT=Orbitrap
COMMENT=DB#=CCMSLIB00010108902; origin=GNPS
NUM_PEAKS=11
COMPOUND_NAME=Isoreserpine
PRECURSOR_MZ=631.263
COLLISION_ENERGY=102040
PARENT_MASS=630.2557235480093
90.848061 0.0006241408638484702
138.278824 0.0007076293588947889
153.473419 0.0006500701101073489
174.090927 0.006463186446911707
192.101257 0.001524676459094775
235.056946 0.004928579638185872
236.128113 0.0027659701629772658
397.213196 0.007764613934671172
419.193054 0.1654975518929729
616.237671 0.003730869135461922
631.261414 1.0
END IONS

BEGIN IONS
CHARGE=1+
PRECURSORTYPE=M+Na
FORMULA=C33H40N2O9
ONTOLOGY=
INCHIKEY=QEVHRUUCFGRFIF-UHFFFAOYSA-N
INCHI=InChI=1S/C33H40N2O9/c1-38-19-7-8-20-21-9-10-35-16-18-13-27(44-32(36)17-11-25(39-2)30(41-4)26(12-17)40-3)31(42-5)28(33(37)43-6)22(18)15-24(35)29(21)34-23(20)14-19/h7-8,11-12,14,18,22,24,27-28,31,34H,9-10,13,15-16H2,1-6H3/t18-,22+,24-,27-,28+,31+/m1/s1
SMILES=COC(=O)C1C2CC3c4[nH]c5cc(OC)ccc5c4CCN3CC2CC(OC(=O)c2cc(OC)c(OC)c(OC)c2)C1OC
IONMODE=positive
INSTRUMENTTYPE=LC-ESI-Orbitrap
INSTRUMENT=Orbitrap
COMMENT=DB#=CCMSLIB00010110974; origin=GNPS
NUM_PEAKS=23
COMPOUND_NAME=reserpine
PRECURSOR_MZ=631.263
COLLISION_ENERGY=102040
PARENT_MASS=630.2557235480093
53.083408 0.002442686972280777
66.739639 0.0027599621927538328
82.04528 0.002397005985039892
82.39534 0.0025689326097464954
104.282082 0.0031320545979159503
118.648956 0.0025938495118778874
124.859543 0.0023803947169522975
205.412979 0.002618766414009279
303.412292 0.0031129516396152168
305.163452 0.004322251956392099
333.159424 0.013840508570583769
335.109406 0.013392834895623098
355.141266 0.003147835302599165
365.184387 0.040190963137934986
387.166931 0.027656930802440527
397.213074 0.005127898458640434
419.192047 0.018083026440155414
481.168457 0.002978400368105701
521.802917 0.0027292313467917827
567.210022 0.01585130257258709
599.234802 0.1509947657894256
631.261353 1.0
649.283203 0.004144511387854838
END IONS

BEGIN IONS
CHARGE=1+
PRECURSORTYPE=M+Na
FORMULA=C27H30O14
ONTOLOGY=
INCHIKEY=TWEOMCKJOCRJRY-UHFFFAOYSA-N
INCHI=InChI=1S/C27H30O14/c1-9-19(32)21(34)24(37)27(38-9)41-14-5-3-2-4-10(14)15-7-13(31)17-11(29)6-12(30)18(25(17)39-15)26-23(36)22(35)20(33)16(8-28)40-26/h2-7,9,16,19-24,26-30,32-37H,8H2,1H3/t9-,16+,19-,20+,21+,22-,23+,24+,26-,27?/m0/s1
SMILES=CC1OC(Oc2ccccc2-c2cc(=O)c3c(O)cc(O)c(C4OC(CO)C(O)C(O)C4O)c3o2)C(O)C(O)C1O
IONMODE=positive
INSTRUMENTTYPE=LC-ESI-Orbitrap
INSTRUMENT=Orbitrap
COMMENT=DB#=CCMSLIB00010113783; origin=GNPS
NUM_PEAKS=15
COMPOUND_NAME=CHEMBL1327126
PRECURSOR_MZ=601.153
COLLISION_ENERGY=102040
PARENT_MASS=600.1457235480093
70.012772 0.0021528954796134155
70.289787 0.0022084093034229475
73.96286 0.0022830060041670063
75.760017 0.00228387340766403
77.945679 0.002628232595982534
88.178398 0.0026195585610122945
233.098648 0.002813856944345657
280.427948 0.002793906663914106
305.927216 0.0023324480034973708
335.053741 0.004989304914881695
352.797272 0.0028771773996284044
365.062561 0.004364774397024459
455.093384 0.03813279253616639
481.11203 0.009047885877456703
601.151978 1.0
END IONS

BEGIN IONS
CHARGE=1+
PRECURSORTYPE=M+Na
FORMULA=C23H21ClFN3O3
ONTOLOGY=
INCHIKEY=SHJQWXKEJJJSGE-UHFFFAOYSA-N
INCHI=InChI=1S/C23H21ClFN3O3/c24-18-12-15(8-9-19(18)25)26-21(29)14-28-20-7-3-2-6-16(20)17(13-22(28)30)23(31)27-10-4-1-5-11-27/h2-3,6-9,12-13H,1,4-5,10-11,14H2,(H,26,29)
SMILES=O=C(c1cc(=O)n(CC(O)=Nc2ccc(F)c(Cl)c2)c2ccccc12)N1CCCCC1
IONMODE=positive
INSTRUMENTTYPE=LC-ESI-Orbitrap
INSTRUMENT=Orbitrap
COMMENT=DB#=CCMSLIB00010112953; origin=GNPS
NUM_PEAKS=17
COMPOUND_NAME=N-(3-chloro-4-fluorophenyl)-2-[2-oxo-4-(piperidylcarbonyl)hydroquinolyl]acetam ide
PRECURSOR_MZ=464.115
COLLISION_ENERGY=102040
PARENT_MASS=463.10772354800923
59.061241 0.0008091530433264893
67.911057 0.000765278967199453
90.926086 0.0006782500620950039
104.288963 0.0009561192108995672
107.005173 0.0006233475296737399
136.216293 0.0008014810737305048
136.709274 0.0006585906400052937
138.010773 0.0013567398732398823
149.020859 0.0007360295831147621
160.800797 0.0007228433853716638
206.036835 0.02467449271498537
208.072159 0.0026353215562206727
259.143311 0.0030786175494386518
298.003387 0.0009331033021116137
381.03952 0.005126793682516636
387.508301 0.0007844588911894142
464.114349 1.0
END IONS

BEGIN IONS
CHARGE=1+
PRECURSORTYPE=M+Na
FORMULA=C30H46O8
ONTOLOGY=
INCHIKEY=QZUORFHTBYGMJJ-UHFFFAOYSA-N
INCHI=InChI=1S/C30H46O8/c1-16(7-10-27(34)35)22-8-9-23-28-24(15-26(30(22,23)6)38-19(4)33)29(5)12-11-21(36-17(2)31)13-20(29)14-25(28)37-18(3)32/h16,20-26,28H,7-15H2,1-6H3,(H,34,35)
SMILES=CC(=O)OC1CCC2(C)C(C1)CC(OC(C)=O)C1C2CC(OC(C)=O)C2(C)C(C(C)CCC(=O)O)CCC12
IONMODE=positive
INSTRUMENTTYPE=LC-ESI-Orbitrap
INSTRUMENT=Orbitrap
COMMENT=DB#=CCMSLIB00010113635; origin=GNPS
NUM_PEAKS=14
COMPOUND_NAME="4-(5,9,16-triacetyloxy-2,15-dimethyltetracyclo[8.7.0.0<2,7>.0<11,15>]heptadec- 14-yl)pentanoic acid "
PRECURSOR_MZ=557.308
COLLISION_ENERGY=102040
PARENT_MASS=556.3007235480093
53.814579 0.0006655799325974642
73.953293 0.0008186253350242058
83.010689 0.0032128363312358293
92.378487 0.0008447659366065834
157.98024 0.0008575011014800496
317.870789 0.0007303728766905373
355.26239 0.0016271965925167278
377.243378 0.00906006439971795
415.209656 0.0006821133045384553
437.266113 0.021371170625292125
497.287598 0.046296345946061884
510.778839 0.0006707186833358803
552.27948 0.0007051259708887536
557.308899 1.0
END IONS

BEGIN IONS
CHARGE=1+
PRECURSORTYPE=M+Na
FORMULA=C15H21NO4
ONTOLOGY=
INCHIKEY=WKMYCGJILIGPTM-UHFFFAOYSA-N
INCHI=InChI=1S/C15H21NO4/c1-18-12-10-14(20-3)13(19-2)9-11(12)15(17)16-7-5-4-6-8-16/h9-10H,4-8H2,1-3H3
SMILES=COc1cc(OC)c(C(=O)N2CCCCC2)cc1OC
IONMODE=positive
INSTRUMENTTYPE=LC-ESI-Orbitrap
INSTRUMENT=Orbitrap
COMMENT=DB#=CCMSLIB00010104299; origin=GNPS
NUM_PEAKS=16
COMPOUND_NAME="piperidyl 2,4,5-trimethoxyphenyl ketone "
PRECURSOR_MZ=302.136
COLLISION_ENERGY=102040
PARENT_MASS=301.12872354800925
82.118187 0.0007192880860631088
82.432587 0.0007297013720275612
82.437927 0.000528763520639422
98.090767 0.0004873032154105833
104.332161 0.000628846769075549
108.214767 0.0005337773249926769
158.044556 0.0006323178643970331
170.669601 0.0005576893149851235
231.368958 0.0005823726594934553
266.082886 0.0005555680900664387
272.088531 0.004421018407797006
287.110809 0.005764139458582409
300.7836 0.0008182143027254076
302.135559 1.0
303.500671 0.0005835296912672834
320.146667 0.003200735563666348
END IONS

BEGIN IONS
CHARGE=1+
PRECURSORTYPE=M+Na
FORMULA=C15H19N3O3S
ONTOLOGY=
INCHIKEY=LFHPZXGAKBLCRH-UHFFFAOYSA-N
INCHI=InChI=1S/C15H19N3O3S/c1-9(2)5-13-17-18-15(22-13)16-14(19)10-6-11(20-3)8-12(7-10)21-4/h6-9H,5H2,1-4H3,(H,16,18,19)
SMILES=COc1cc(OC)cc(C(O)=Nc2nnc(CC(C)C)s2)c1
IONMODE=positive
INSTRUMENTTYPE=LC-ESI-Orbitrap
INSTRUMENT=Orbitrap
COMMENT=DB#=CCMSLIB00010104361; origin=GNPS
NUM_PEAKS=17
COMPOUND_NAME="(3,5-dimethoxyphenyl)-N-[5-(2-methylpropyl)(1,3,4-thiadiazol-2-yl)]carboxamide "
PRECURSOR_MZ=344.104
COLLISION_ENERGY=102040
PARENT_MASS=343.0967235480092
67.462143 0.0014282933055970164
73.966042 0.0018349312079408108
92.395638 0.0021605987519848157
99.800453 0.001369947017998639
102.487717 0.0015890432816333627
105.79911 0.0013592303529295492
122.267822 0.0013973340509529795
136.235275 0.0017057358568301176
158.008011 0.0018057580641416219
158.08461 0.0014949747771380193
160.074173 0.002636894977277693
209.904739 0.005425014006085875
211.733368 0.00158487568966205
263.736725 0.0016450080881052758
344.103119 1.0
362.065918 0.002622010720237291
362.113983 0.005916194488419155
END IONS

BEGIN IONS
CHARGE=1+
PRECURSORTYPE=M+Na
FORMULA=C15H8N2O2
ONTOLOGY=
INCHIKEY=VQQVWGVXDIPORV-UHFFFAOYSA-N
INCHI=InChI=1S/C15H8N2O2/c18-13-10-6-2-4-8-12(10)17-14(13)16-11-7-3-1-5-9(11)15(17)19/h1-8H
SMILES=O=C1c2ccccc2-n2c1nc1ccccc1c2=O
IONMODE=positive
INSTRUMENTTYPE=LC-ESI-Orbitrap
INSTRUMENT=Orbitrap
COMMENT=DB#=CCMSLIB00010107773; origin=GNPS
NUM_PEAKS=18
COMPOUND_NAME="Indolo[2,1-b]quinazoline-6,12-dione "
PRECURSOR_MZ=271.048
COLLISION_ENERGY=102040
PARENT_MASS=270.0407235480092
60.200489 0.008120747746224195
63.887241 0.007310949512820179
76.009033 0.00653042109508137
77.664383 0.006263740552353943
79.446381 0.006436107244604597
81.353821 0.007080043189239115
84.959801 0.014810526726593904
105.364853 0.007216635662343407
118.657784 0.009041120838807874
130.674194 0.006654004761223348
225.488434 0.007063782180536223
236.495377 0.008426454709838561
238.211868 0.007135330618828947
269.146362 0.0091874699171339
271.04718 1.0
271.116943 0.039436198306253334
271.151337 0.04370959139337331
289.058594 0.010208661263675508
END IONS

BEGIN IONS
CHARGE=1+
PRECURSORTYPE=M+Na
FORMULA=C15H8N2O2
ONTOLOGY=
INCHIKEY=VQQVWGVXDIPORV-UHFFFAOYSA-N
INCHI=InChI=1S/C15H8N2O2/c18-13-10-6-2-4-8-12(10)17-14(13)16-11-7-3-1-5-9(11)15(17)19/h1-8H
SMILES=O=C1c2ccccc2-n2c1nc1ccccc1c2=O
IONMODE=positive
INSTRUMENTTYPE=LC-ESI-Orbitrap
INSTRUMENT=Orbitrap
COMMENT=DB#=CCMSLIB00010107774; origin=GNPS
NUM_PEAKS=20
COMPOUND_NAME="Indolo[2,1-b]quinazoline-6,12-dione "
PRECURSOR_MZ=271.048
COLLISION_ENERGY=102040
PARENT_MASS=270.0407235480092
61.15979 0.010843612174039976
68.798241 0.012631765527739836
69.622124 0.010504749293601226
84.959999 0.10195602081139414
92.37941 0.011808068064519492
102.970741 0.014909966739304966
110.620468 0.009425601351280902
113.619728 0.01088531837470936
126.582626 0.012579632776903106
136.210388 0.013132239935772451
211.969452 0.022213765131530932
240.231613 0.06567683950411328
248.023758 0.017610443232647613
256.065125 0.012219916796129665
266.03125 0.011641243261841955
271.047729 1.0
271.087646 0.17019779165667456
271.274414 0.0697379807942946
273.310303 0.010431763442429803
288.92926 0.013799539146482603
END IONS

BEGIN IONS
CHARGE=1+
PRECURSORTYPE=M+Na
FORMULA=C13H15N3O2
ONTOLOGY=
INCHIKEY=HNGIZKAMDMBRKJ-UHFFFAOYSA-N
INCHI=InChI=1S/C13H15N3O2/c1-8(17)16-12(13(14)18)6-9-7-15-11-5-3-2-4-10(9)11/h2-5,7,12,15H,6H2,1H3,(H2,14,18)(H,16,17)/t12-/m0/s1
SMILES=CC(O)=NC(Cc1c[nH]c2ccccc12)C(=N)O
IONMODE=positive
INSTRUMENTTYPE=LC-ESI-Orbitrap
INSTRUMENT=Orbitrap
COMMENT=DB#=CCMSLIB00010112335; origin=GNPS
NUM_PEAKS=11
COMPOUND_NAME=2382-79-8
PRECURSOR_MZ=268.106
COLLISION_ENERGY=102040
PARENT_MASS=267.0987235480092
63.095501 0.0007534938652319402
64.353867 0.0006710845745029854
98.91629 0.000725674168361656
130.064209 0.0007212125188635917
136.060867 0.001195984515451742
192.992004 0.0007227872186864379
220.882614 0.0008755331015025261
245.010605 0.0007248868184502329
251.078415 0.004053802243947247
266.957703 0.0007170133193360016
268.105133 1.0
END IONS

BEGIN IONS
CHARGE=1+
PRECURSORTYPE=M+Na
FORMULA=C20H21NO4
ONTOLOGY=
INCHIKEY=XQYZDYMELSJDRZ-UHFFFAOYSA-N
INCHI=InChI=1S/C20H21NO4/c1-22-17-6-5-13(10-18(17)23-2)9-16-15-12-20(25-4)19(24-3)11-14(15)7-8-21-16/h5-8,10-12H,9H2,1-4H3
SMILES=COc1ccc(Cc2nccc3cc(OC)c(OC)cc23)cc1OC
IONMODE=positive
INSTRUMENTTYPE=LC-ESI-Orbitrap
INSTRUMENT=Orbitrap
COMMENT=DB#=CCMSLIB00010103728; origin=GNPS
NUM_PEAKS=10
COMPOUND_NAME=papaverine
PRECURSOR_MZ=362.136
COLLISION_ENERGY=102040
PARENT_MASS=361.12872354800925
65.72551 0.002192668124211882
92.362633 0.0025500993368471666
93.720329 0.002168174107102358
104.268913 0.0029456323538750444
137.731812 0.002415835835654217
292.905762 0.003469985757182644
320.898438 0.010820912447496622
338.911133 0.02366303489943845
362.135559 1.0
380.147766 0.00904101387087117
END IONS

BEGIN IONS
CHARGE=1+
PRECURSORTYPE=M+Na
FORMULA=C20H21NO4
ONTOLOGY=
INCHIKEY=XQYZDYMELSJDRZ-UHFFFAOYSA-N
INCHI=InChI=1S/C20H21NO4/c1-22-17-6-5-13(10-18(17)23-2)9-16-15-12-20(25-4)19(24-3)11-14(15)7-8-21-16/h5-8,10-12H,9H2,1-4H3
SMILES=COc1ccc(Cc2nccc3cc(OC)c(OC)cc23)cc1OC
IONMODE=positive
INSTRUMENTTYPE=LC-ESI-Orbitrap
INSTRUMENT=Orbitrap
COMMENT=DB#=CCMSLIB00010103729; origin=GNPS
NUM_PEAKS=7
COMPOUND_NAME=papaverine
PRECURSOR_MZ=362.136
COLLISION_ENERGY=102040
PARENT_MASS=361.12872354800925
80.609917 0.002446884986730317
113.75528 0.002332716371295688
222.000305 0.0022853073699711387
320.899994 0.01983534563580792
338.909576 0.03737764365653049
362.135956 1.0
380.146332 0.004362595652497825
END IONS

BEGIN IONS
CHARGE=1+
PRECURSORTYPE=M+Na
FORMULA=C20H21NO4
ONTOLOGY=
INCHIKEY=XQYZDYMELSJDRZ-UHFFFAOYSA-N
INCHI=InChI=1S/C20H21NO4/c1-22-17-6-5-13(10-18(17)23-2)9-16-15-12-20(25-4)19(24-3)11-14(15)7-8-21-16/h5-8,10-12H,9H2,1-4H3
SMILES=COc1ccc(Cc2nccc3cc(OC)c(OC)cc23)cc1OC
IONMODE=positive
INSTRUMENTTYPE=LC-ESI-Orbitrap
INSTRUMENT=Orbitrap
COMMENT=DB#=CCMSLIB00010103730; origin=GNPS
NUM_PEAKS=17
COMPOUND_NAME=papaverine
PRECURSOR_MZ=362.136
COLLISION_ENERGY=102040
PARENT_MASS=361.12872354800925
62.86536 0.004220259812608003
73.448051 0.0037676309920634194
73.952003 0.004330210133388064
99.768127 0.004203767264490994
104.285019 0.0049660894885660825
116.119324 0.004553775785640855
122.474678 0.003941718999965182
123.97184 0.0042697374569590305
125.532913 0.0045207906894068365
181.338455 0.004291727521115043
209.605728 0.006514556506218607
235.783035 0.006050932653596017
242.655792 0.003945384010657851
320.898438 0.008799690673097538
338.909515 0.03646319138136086
362.135376 1.0
380.144623 0.017865094621413558
END IONS

BEGIN IONS
CHARGE=1+
PRECURSORTYPE=M+Na
FORMULA=C19H23N5O2S
ONTOLOGY=
INCHIKEY=LBBHWQWQLGTRIC-UHFFFAOYSA-N
INCHI=InChI=1S/C19H23N5O2S/c1-5-14(17(25)22-13-8-6-12(7-9-13)11(2)3)27-19-23-15-16(24(19)4)20-10-21-18(15)26/h6-11,14H,5H2,1-4H3,(H,22,25)(H,20,21,26)
SMILES=CCC(Sc1nc2c(O)ncnc2n1C)C(=O)Nc1ccc(C(C)C)cc1
IONMODE=positive
INSTRUMENTTYPE=LC-ESI-Orbitrap
INSTRUMENT=Orbitrap
COMMENT=DB#=CCMSLIB00010108666; origin=GNPS
NUM_PEAKS=17
COMPOUND_NAME=N-[4-(methylethyl)phenyl]-2-(9-methyl-6-oxohydropurin-8-ylthio)butanamide
PRECURSOR_MZ=408.146
COLLISION_ENERGY=102040
PARENT_MASS=407.13872354800924
58.771961 0.0006211975929109906
89.822731 0.0006019789049067583
92.990936 0.0005970192434863114
104.274132 0.0006995189128422166
106.864128 0.000588959793678085
130.51767 0.0006021855574659436
144.414291 0.0007290702288057135
173.042404 0.0007881728607327073
187.473114 0.0007493221796058722
204.007507 0.047401550720804125
204.029465 0.0015482409734162148
205.015289 0.10170550357095623
212.104172 0.012850689392937441
226.119934 0.005171066988493586
245.046143 0.0009111311334479566
273.039612 0.00551948320327999
408.145782 1.0
END IONS

BEGIN IONS
CHARGE=1+
PRECURSORTYPE=M+Na
FORMULA=C19H17NO5
ONTOLOGY=
INCHIKEY=VLARYZURBZCEOD-UHFFFAOYSA-N
INCHI=InChI=1S/C19H17NO5/c1-23-16-8-11(9-17(24-2)18(16)25-3)15(21)10-13-12-6-4-5-7-14(12)20-19(13)22/h4-10H,1-3H3,(H,20,22)/b13-10-
SMILES=COc1cc(C(=O)C=C2C(O)=Nc3ccccc32)cc(OC)c1OC
IONMODE=positive
INSTRUMENTTYPE=LC-ESI-Orbitrap
INSTRUMENT=Orbitrap
COMMENT=DB#=CCMSLIB00010109370; origin=GNPS
NUM_PEAKS=14
COMPOUND_NAME="3-[2-oxo-2-(3,4,5-trimethoxyphenyl)ethylidene]-1H-benzo[d]azolidin-2-one "
PRECURSOR_MZ=362.1
COLLISION_ENERGY=102040
PARENT_MASS=361.09272354800925
53.06348 0.0012985169302947097
53.147362 0.001256829185027114
102.6633 0.0015728673619882126
118.402443 0.0013728788542855565
118.663033 0.0013464015025615428
119.639076 0.0012624626641173295
157.976715 0.0018246838773208526
166.071747 0.0013379512839262195
186.040054 0.0015835709722596223
232.58252 0.0013717521584675134
331.1492 0.001887778843131268
347.073608 0.0019818579439378693
362.099487 1.0
380.112823 0.0023283169079861324
END IONS

BEGIN IONS
CHARGE=1+
PRECURSORTYPE=M+Na
FORMULA=C15H14N4O3S
ONTOLOGY=
INCHIKEY=RDISCFKPWSUFQH-UHFFFAOYSA-N
INCHI=InChI=1S/C15H14N4O3S/c1-19-13-12(14(21)17-8-16-13)18-15(19)23-7-10-5-9(6-20)3-4-11(10)22-2/h3-6,8H,7H2,1-2H3,(H,16,17,21)
SMILES=COc1ccc(C=O)cc1CSc1nc2c(O)ncnc2n1C
IONMODE=positive
INSTRUMENTTYPE=LC-ESI-Orbitrap
INSTRUMENT=Orbitrap
COMMENT=DB#=CCMSLIB00010112201; origin=GNPS
NUM_PEAKS=14
COMPOUND_NAME=4-methoxy-3-[(9-methyl-6-oxohydropurin-8-ylthio)methyl]benzaldehyde
PRECURSOR_MZ=353.068
COLLISION_ENERGY=102040
PARENT_MASS=352.0607235480092
52.49559 0.000517271622391299
55.194099 0.0005610199271444898
59.008259 0.0005516452904116632
60.534481 0.000574144418570447
65.711502 0.00053289601694601
128.220108 0.000673515567938409
149.05954 0.0030861304124465178
153.234024 0.0006647659069877709
204.007355 0.14129035833194797
222.016983 0.0008178849736239387
224.676483 0.0006312255400103246
235.827209 0.0006893482877538495
338.04425 0.0006291422874030298
353.067078 1.0
END IONS

BEGIN IONS
CHARGE=1+
PRECURSORTYPE=M+Na
FORMULA=C37H50N2O10
ONTOLOGY=
INCHIKEY=XLTANAWLDBYGFU-UHFFFAOYSA-N
INCHI=InChI=1S/C37H50N2O10/c1-7-38-17-34(18-49-32(42)20-10-8-9-11-23(20)39-26(40)14-19(2)31(39)41)13-12-25(46-4)36-22-15-21-24(45-3)16-35(43,27(22)28(21)47-5)37(44,33(36)38)30(48-6)29(34)36/h8-11,19,21-22,24-25,27-30,33,43-44H,7,12-18H2,1-6H3/t19?,21-,22?,24+,25+,27?,28+,29?,30+,33+,34?,35-,36+,37+/m1/s1
SMILES=CCN1CC2(COC(=O)c3ccccc3N3C(=O)CC(C)C3=O)CCC(OC)C34C5CC6C(OC)CC(O)(C5C6OC)C(O)(C(OC)C23)C14
IONMODE=positive
INSTRUMENTTYPE=LC-ESI-Orbitrap
INSTRUMENT=Orbitrap
COMMENT=DB#=CCMSLIB00010104484; origin=GNPS
NUM_PEAKS=71
COMPOUND_NAME=Methyllycaconitine Perchlorate
PRECURSOR_MZ=705.336
COLLISION_ENERGY=102040
PARENT_MASS=704.3287235480093
54.238529 0.0006109173009371919
56.16082 0.0005897355835936475
58.065529 0.0025014236704624607
71.049294 0.001431365978474194
75.04435 0.00903118329759109
82.064972 0.001073410194013864
91.054428 0.0008399541438677481
98.095993 0.0008966419053914785
108.08062 0.00082075345044842
109.064178 0.0006455090263831243
109.885933 0.0006039075239745801
122.096207 0.003616587753340578
123.080566 0.0007636085295575627
125.887497 0.0005879069461251401
135.07962 0.000827153681588196
143.085037 0.0008463543750075241
147.080841 0.0008964895189357696
150.091614 0.005014123938647384
150.103622 0.0007950001394336069
154.121399 0.0006066504801773413
175.899216 0.0007157591824649515
176.822952 0.0006043646833417069
179.085175 0.0009455579576740523
192.094315 0.0006098505957472293
193.100998 0.0008926798575430458
216.065048 0.006366096573697214
219.116241 0.002439859542356044
221.131073 0.0009033469094426724
237.126648 0.0010369898310994242
240.063049 0.0024892327540057446
247.110092 0.0009086804353924858
249.125137 0.0006516044846114823
251.142471 0.0013172285231481883
253.158951 0.0008326395939937183
261.124817 0.0007351122623399885
262.179352 0.0008643359767811805
265.122314 0.000688177233981631
276.174622 0.0011006873695857664
279.138184 0.002343856075259404
283.167633 0.00122823483301416
304.170135 0.0006793388195505118
308.2005 0.0027057739075681667
311.164978 0.0010894107718633038
336.196075 0.0027246698280760768
340.227173 0.005785504177446103
354.204559 0.0007293215770230483
368.221283 0.011085657493459192
372.253448 0.015528179836742295
383.180206 0.001108763851738341
386.231873 0.0027117169793408158
400.247437 0.07653137339969458
408.213715 0.0011140973776881543
409.221436 0.018512973344713555
415.208282 0.0035045837083944975
418.258698 0.009336260981920414
422.225891 0.0011716994579461385
432.274506 0.0014353280263226268
440.239532 0.012749108043978122
450.283478 0.01161428610831355
458.250427 0.03154932985770305
472.265472 0.007016329580207315
541.27179 0.0026576197875641376
573.295044 0.004272154285800493
601.288269 0.003095121301904541
605.318359 0.006932974188934519
633.311707 0.006583704432449599
655.295288 0.004644891556464591
665.339722 0.0008372111876649869
673.309082 0.0014761675964526262
705.3349 1.0
710.290833 0.0007279500989216677
END IONS

BEGIN IONS
CHARGE=1+
PRECURSORTYPE=M+Na
FORMULA=C18H21NO4
ONTOLOGY=
INCHIKEY=JWFHAILNLSSNDW-UHFFFAOYSA-N
INCHI=InChI=1S/C18H21NO4/c1-4-22-16-11-10-13(12-17(16)23-5-2)18(20)19-14-8-6-7-9-15(14)21-3/h6-12H,4-5H2,1-3H3,(H,19,20)
SMILES=CCOc1ccc(C(O)=Nc2ccccc2OC)cc1OCC
IONMODE=positive
INSTRUMENTTYPE=LC-ESI-Orbitrap
INSTRUMENT=Orbitrap
COMMENT=DB#=CCMSLIB00010104679; origin=GNPS
NUM_PEAKS=12
COMPOUND_NAME="(3,4-diethoxyphenyl)-N-(2-methoxyphenyl)carboxamide "
PRECURSOR_MZ=338.136
COLLISION_ENERGY=102040
PARENT_MASS=337.12872354800925
50.073471 0.0017268199614022778
54.35302 0.0018139565544524148
65.22657 0.0016540798489430332
65.308983 0.0015722472224263828
77.336258 0.0016972692907157097
125.509987 0.0020003530926292292
136.202927 0.002175383988234287
223.903229 0.002155683541109908
232.582703 0.0017093926427922505
259.320312 0.002235243039112207
338.135468 1.0
356.146454 0.0024640713095569144
END IONS

BEGIN IONS
CHARGE=1+
PRECURSORTYPE=M+Na
FORMULA=C26H27N3O2
ONTOLOGY=
INCHIKEY=RUTWJFHUJLHOGI-UHFFFAOYSA-N
INCHI=InChI=1S/C26H27N3O2/c30-21(18-27-14-16-28(17-15-27)26(31)20-8-2-1-3-9-20)19-29-24-12-6-4-10-22(24)23-11-5-7-13-25(23)29/h1-13,21,30H,14-19H2
SMILES=O=C(c1ccccc1)N1CCN(CC(O)Cn2c3ccccc3c3ccccc32)CC1
IONMODE=positive
INSTRUMENTTYPE=LC-ESI-Orbitrap
INSTRUMENT=Orbitrap
COMMENT=DB#=CCMSLIB00010106669; origin=GNPS
NUM_PEAKS=10
COMPOUND_NAME=4-(3-carbazol-9-yl-2-hydroxypropyl)piperazinyl phenyl ketone
PRECURSOR_MZ=436.2
COLLISION_ENERGY=102040
PARENT_MASS=435.1927235480092
60.30743 0.0007210592461884148
71.752991 0.000869841189239968
72.03125 0.0007004938240259988
118.644653 0.0007670140784278878
119.058006 0.0007385779391415841
177.127396 0.000838104426643647
216.499405 0.000786817818287992
247.789978 0.0007111573762583626
284.374084 0.000756858314397065
436.198883 1.0
END IONS

BEGIN IONS
CHARGE=1+
PRECURSORTYPE=M+Na
FORMULA=C17H14O4
ONTOLOGY=
INCHIKEY=KJRQQECDVUXBCO-UHFFFAOYSA-N
INCHI=InChI=1S/C17H14O4/c1-19-14-9-8-12-13(18)10-15(11-6-4-3-5-7-11)21-16(12)17(14)20-2/h3-10H,1-2H3
SMILES=COc1ccc2c(=O)cc(-c3ccccc3)oc2c1OC
IONMODE=positive
INSTRUMENTTYPE=LC-ESI-Orbitrap
INSTRUMENT=Orbitrap
COMMENT=DB#=CCMSLIB00010103430; origin=GNPS
NUM_PEAKS=15
COMPOUND_NAME="7,8-Dimethoxyflavone "
PRECURSOR_MZ=305.078
COLLISION_ENERGY=102040
PARENT_MASS=304.0707235480092
54.336048 0.0017875549539256353
56.90662 0.0019249397680137104
56.90984 0.0018597401952261494
67.364464 0.0018193785549290877
73.938942 0.0020762959191276916
99.842697 0.0018232594818807283
107.124329 0.001764269392215792
136.181351 0.0024317888278979657
157.938065 0.002239294851096595
157.951523 0.002070862621395395
215.830872 0.001713817341844465
301.658386 0.0017828978415836666
305.077911 1.0
305.169434 0.0690277191326594
323.088776 0.043828084250267005
END IONS

BEGIN IONS
CHARGE=1+
PRECURSORTYPE=M+Na
FORMULA=C17H14O4
ONTOLOGY=
INCHIKEY=KJRQQECDVUXBCO-UHFFFAOYSA-N
INCHI=InChI=1S/C17H14O4/c1-19-14-9-8-12-13(18)10-15(11-6-4-3-5-7-11)21-16(12)17(14)20-2/h3-10H,1-2H3
SMILES=COc1ccc2c(=O)cc(-c3ccccc3)oc2c1OC
IONMODE=positive
INSTRUMENTTYPE=LC-ESI-Orbitrap
INSTRUMENT=Orbitrap
COMMENT=DB#=CCMSLIB00010103431; origin=GNPS
NUM_PEAKS=19
COMPOUND_NAME="7,8-Dimethoxyflavone "
PRECURSOR_MZ=305.078
COLLISION_ENERGY=102040
PARENT_MASS=304.0707235480092
50.023659 0.006287880936846982
56.994301 0.0071199614217229736
64.342941 0.007491876183902395
64.371613 0.006174415416182074
64.895737 0.007444598883625349
82.421516 0.008721085991105564
84.959953 0.008982687052638546
90.976646 0.04186877712535103
99.522163 0.007271248782609518
104.315292 0.006952914960744082
115.232674 0.0076431635447889385
136.249573 0.007526546204105561
143.422897 0.0070852914015198075
151.661087 0.007104202321630625
209.533813 0.014539345745200567
258.879578 0.010186682299693958
305.077911 1.0
305.174438 0.5120635911206927
323.088959 0.02756266606151722
END IONS

BEGIN IONS
CHARGE=1+
PRECURSORTYPE=M+Na
FORMULA=C19H17Cl2NO6
ONTOLOGY=
INCHIKEY=NYIHORJUBZLXER-UHFFFAOYSA-N
INCHI=InChI=1S/C19H17Cl2NO6/c1-8(2)26-19(25)14-13(10-4-3-5-11(20)15(10)21)17-16(28-18(14)22)12(24)6-9(7-23)27-17/h3-6,8,13,23H,7,22H2,1-2H3
SMILES=CC(C)OC(=O)C1=C(N)Oc2c(oc(CO)cc2=O)C1c1cccc(Cl)c1Cl
IONMODE=positive
INSTRUMENTTYPE=LC-ESI-Orbitrap
INSTRUMENT=Orbitrap
COMMENT=DB#=CCMSLIB00010112565; origin=GNPS
NUM_PEAKS=18
COMPOUND_NAME="methylethyl 2-amino-4-(2,3-dichlorophenyl)-6-(hydroxymethyl)-8-oxo-4H-pyrano[3 ,2-b]pyran-3-carboxylate "
PRECURSOR_MZ=448.033
COLLISION_ENERGY=102040
PARENT_MASS=447.02572354800924
51.408409 0.010807308656195306
56.687721 0.009772470608349793
63.57888 0.011045771336785793
71.752319 0.010852301614797284
71.911873 0.012301074881781001
73.946373 0.014199777734784506
85.563477 0.010784812176894316
99.614677 0.010307886815713341
104.271317 0.011693669940654287
113.448601 0.011491201626945382
136.192444 0.010807308656195306
188.470551 0.010627336821787391
203.14032 0.012607027000274457
303.534454 0.013295419266884732
332.294434 0.011365221342859843
387.973602 0.1374894828959268
448.031586 1.0
466.043671 0.04173546839919553
END IONS

BEGIN IONS
CHARGE=1+
PRECURSORTYPE=M+Na
FORMULA=C18H18N2O6
ONTOLOGY=
INCHIKEY=QZSPYIDISPEVBP-UHFFFAOYSA-N
INCHI=InChI=1S/C18H18N2O6/c1-9(2)24-18(23)14-13(10-4-3-5-20-7-10)16-15(26-17(14)19)12(22)6-11(8-21)25-16/h3-7,9,13,21H,8,19H2,1-2H3
SMILES=CC(C)OC(=O)C1=C(N)Oc2c(oc(CO)cc2=O)C1c1cccnc1
IONMODE=positive
INSTRUMENTTYPE=LC-ESI-Orbitrap
INSTRUMENT=Orbitrap
COMMENT=DB#=CCMSLIB00010106844; origin=GNPS
NUM_PEAKS=14
COMPOUND_NAME="methylethyl 2-amino-6-(hydroxymethyl)-8-oxo-4-(3-pyridyl)-4H-pyrano[3,2-b]pyra n-3-carboxylate "
PRECURSOR_MZ=381.106
COLLISION_ENERGY=102040
PARENT_MASS=380.0987235480092
64.333267 0.008147169949745058
66.61367 0.008341586882359414
73.954742 0.009680495946590368
82.399323 0.00937603169362826
103.62796 0.009075235684677744
104.288582 0.009163273540955945
114.661591 0.00824254429404644
117.045578 0.009585121602288985
118.655663 0.011334873995818201
165.343399 0.009276989105315285
321.047974 0.09513590844062947
339.058594 0.01041781299292029
381.104706 1.0
399.115356 0.04896005282271377
END IONS

BEGIN IONS
CHARGE=1+
PRECURSORTYPE=M+Na
FORMULA=C8H10BrN3OS
ONTOLOGY=
INCHIKEY=DWEPCHYENCFQCO-UHFFFAOYSA-N
INCHI=InChI=1S/C8H10BrN3OS/c1-8(2)3-12-5(10)4(9)6(13)11-7(12)14-8/h3,10H2,1-2H3
SMILES=CC1(C)Cn2c(nc(=O)c(Br)c2N)S1
IONMODE=positive
INSTRUMENTTYPE=LC-ESI-Orbitrap
INSTRUMENT=Orbitrap
COMMENT=DB#=CCMSLIB00010105466; origin=GNPS
NUM_PEAKS=16
COMPOUND_NAME="5-amino-6-bromo-2,2-dimethyl-4-hydro-3H-1,3-thiazolidino[3,2-a]pyrimidin-7-one "
PRECURSOR_MZ=297.962
COLLISION_ENERGY=102040
PARENT_MASS=296.9547235480092
60.988419 0.0005228047541480122
71.380203 0.00048510248822387675
73.96096 0.00042819002013839606
77.585487 0.0004436299957073277
79.863487 0.0004310625737326159
84.959747 0.0005208298735519862
109.722153 0.000486359230421348
110.454758 0.0005567367934797342
118.666946 0.00046643088986144776
153.045654 0.0005619432968692577
297.961609 1.0
299.294067 0.0009389659561106127
300.06134 0.0037774079763990996
315.972656 0.007674924599956516
338.989532 0.0060643197065973755
375.304047 0.0005834874488259066
END IONS

BEGIN IONS
CHARGE=1+
PRECURSORTYPE=M+Na
FORMULA=C21H21NO3
ONTOLOGY=
INCHIKEY=WRKNCGBLJWHTCH-UHFFFAOYSA-N
INCHI=InChI=1S/C21H21NO3/c23-19-10-9-16-20(24)18(15-7-3-1-4-8-15)14-25-21(16)17(19)13-22-11-5-2-6-12-22/h1,3-4,7-10,14,23H,2,5-6,11-13H2
SMILES=O=c1c(-c2ccccc2)coc2c(CN3CCCCC3)c(O)ccc12
IONMODE=positive
INSTRUMENTTYPE=LC-ESI-Orbitrap
INSTRUMENT=Orbitrap
COMMENT=DB#=CCMSLIB00010103462; origin=GNPS
NUM_PEAKS=12
COMPOUND_NAME=7-hydroxy-3-phenyl-8-(piperidylmethyl)chromen-4-one
PRECURSOR_MZ=358.141
COLLISION_ENERGY=102040
PARENT_MASS=357.13372354800924
54.591068 0.0003112163385188435
60.502411 0.00029496769560450286
92.383263 0.00032985741965370054
136.211334 0.0003802979921362549
168.205856 0.0003521868430451871
209.146133 0.0014222048371711532
273.052185 1.0
287.560333 0.00034221835045970204
291.062439 0.010970126720474595
314.078461 0.008805867295239935
358.141113 0.16757404870426043
376.148834 0.0006008010481271844
END IONS

BEGIN IONS
CHARGE=1+
PRECURSORTYPE=M+Na
FORMULA=C21H21NO3
ONTOLOGY=
INCHIKEY=WRKNCGBLJWHTCH-UHFFFAOYSA-N
INCHI=InChI=1S/C21H21NO3/c23-19-10-9-16-20(24)18(15-7-3-1-4-8-15)14-25-21(16)17(19)13-22-11-5-2-6-12-22/h1,3-4,7-10,14,23H,2,5-6,11-13H2
SMILES=O=c1c(-c2ccccc2)coc2c(CN3CCCCC3)c(O)ccc12
IONMODE=positive
INSTRUMENTTYPE=LC-ESI-Orbitrap
INSTRUMENT=Orbitrap
COMMENT=DB#=CCMSLIB00010103464; origin=GNPS
NUM_PEAKS=11
COMPOUND_NAME=7-hydroxy-3-phenyl-8-(piperidylmethyl)chromen-4-one
PRECURSOR_MZ=358.141
COLLISION_ENERGY=102040
PARENT_MASS=357.13372354800924
52.0378 0.0006295144936153849
58.689659 0.0005772772386720179
69.822662 0.0005486023200009781
71.326599 0.0006786397418812747
84.595238 0.0006788620280725231
214.151596 0.0005946155615893907
273.052002 1.0
291.062866 0.006719489275246988
300.441345 0.0006444076684290257
314.0784 0.01814588865017822
358.141022 0.17248519296108547
END IONS

BEGIN IONS
CHARGE=1+
PRECURSORTYPE=M+Na
FORMULA=C19H20O3
ONTOLOGY=
INCHIKEY=GVKKJJOMQCNPGB-UHFFFAOYSA-N
INCHI=InChI=1S/C19H20O3/c1-10-9-22-18-12-6-7-13-11(5-4-8-19(13,2)3)15(12)17(21)16(20)14(10)18/h6-7,10H,4-5,8-9H2,1-3H3/t10-/m0/s1
SMILES=CC1COC2=C1C(=O)C(=O)c1c2ccc2c1CCCC2(C)C
IONMODE=positive
INSTRUMENTTYPE=LC-ESI-Orbitrap
INSTRUMENT=Orbitrap
COMMENT=DB#=CCMSLIB00010107311; origin=GNPS
NUM_PEAKS=11
COMPOUND_NAME=Cryptotanshinone
PRECURSOR_MZ=319.13
COLLISION_ENERGY=102040
PARENT_MASS=318.1227235480092
55.732052 0.002697036741503754
58.242512 0.0034819194080737007
73.994476 0.003439846215226143
82.946182 0.0031743498603605236
252.212296 0.00401291211780494
319.129822 1.0
319.222687 0.305557288455261
360.157196 0.004601936817670741
364.688843 0.0031598418628268833
400.365143 0.0035820245910558194
642.010559 0.0036226469841500126
END IONS

BEGIN IONS
CHARGE=1+
PRECURSORTYPE=M+Na
FORMULA=C31H38O11
ONTOLOGY=
INCHIKEY=OVMSOCFBDVBLFW-UHFFFAOYSA-N
INCHI=InChI=1S/C31H38O11/c1-15-19(34)13-31(38)26(41-27(37)18-10-8-7-9-11-18)24-29(6,20(35)12-21-30(24,14-39-21)42-17(3)33)25(36)23(40-16(2)32)22(15)28(31,4)5/h7-11,19-21,23-24,26,34-35,38H,12-14H2,1-6H3/t19-,20-,21+,23+,24-,26-,29+,30-,31+/m0/s1
SMILES=CC(=O)OC1C(=O)C2(C)C(O)CC3OCC3(OC(C)=O)C2C(OC(=O)c2ccccc2)C2(O)CC(O)C(C)=C1C2(C)C
IONMODE=positive
INSTRUMENTTYPE=LC-ESI-Orbitrap
INSTRUMENT=Orbitrap
COMMENT=DB#=CCMSLIB00010112709; origin=GNPS
NUM_PEAKS=32
COMPOUND_NAME=Baccatin III
PRECURSOR_MZ=609.231
COLLISION_ENERGY=102040
PARENT_MASS=608.2237235480093
64.647903 0.0007200112157275645
83.009506 0.0009675970894224622
87.966972 0.0008057476666890486
88.284897 0.0007206673620359432
95.085037 0.001412026855630971
105.033401 0.022006928467585608
123.079514 0.0008648008344431319
137.094284 0.000681298583533221
142.951721 0.0007086380130490004
147.311615 0.0007795018143539004
151.11116 0.0010314619967713228
157.098923 0.000805310235816796
183.118149 0.0007600361405386655
183.375427 0.0007375084506176633
185.132812 0.0012718302610740546
197.094833 0.0007766585136842594
201.126434 0.0012228380033817781
267.475983 0.0008184331619843702
295.125946 0.0011950611429937463
296.58847 0.0009323839042061384
309.069366 0.0009326026196422646
337.140472 0.001637522470277119
339.155029 0.004591055719725792
367.150116 0.030252281694108527
399.174713 0.0032512049580164784
427.172211 0.03295254246852302
459.177185 0.011040973931088452
461.195374 0.0009223229941443316
489.187378 0.019971125188122614
521.215027 0.023446076037296232
549.208557 0.26702136477994715
609.229675 1.0
END IONS

BEGIN IONS
CHARGE=1+
PRECURSORTYPE=M+Na
FORMULA=C23H23N3O3
ONTOLOGY=
INCHIKEY=DCCAEOPQQCUJLL-UHFFFAOYSA-N
INCHI=InChI=1S/C23H23N3O3/c27-21(24-17-9-3-1-4-10-17)16-26-20-12-6-5-11-18(20)19(15-22(26)28)23(29)25-13-7-2-8-14-25/h1,3-6,9-12,15H,2,7-8,13-14,16H2,(H,24,27)
SMILES=O=C(c1cc(=O)n(CC(O)=Nc2ccccc2)c2ccccc12)N1CCCCC1
IONMODE=positive
INSTRUMENTTYPE=LC-ESI-Orbitrap
INSTRUMENT=Orbitrap
COMMENT=DB#=CCMSLIB00010113231; origin=GNPS
NUM_PEAKS=19
COMPOUND_NAME=2-[2-oxo-4-(piperidylcarbonyl)hydroquinolyl]-N-phenylacetamide
PRECURSOR_MZ=412.163
COLLISION_ENERGY=102040
PARENT_MASS=411.15572354800923
50.47081 0.0005034295148669632
52.812061 0.0005929202965268277
60.72493 0.00046552753675219703
62.688801 0.0004774596409735123
83.016891 0.0004918483548874513
92.383347 0.0006694261412399668
102.411987 0.0005451918796415666
104.32753 0.000500095544569831
114.996277 0.0005832693298772344
176.603683 0.0004790388900616276
192.647385 0.0005323824148157428
205.120117 0.0006559147879305362
208.995331 0.0025897930323881178
211.015808 0.0005916919916805158
319.102509 0.0008434944851744482
329.088226 0.004988496925114289
394.151917 0.00385810552226557
412.162323 1.0
430.180603 0.0006436317394674175
END IONS

BEGIN IONS
CHARGE=1+
PRECURSORTYPE=M+Na
FORMULA=C8H15NOS2
ONTOLOGY=
INCHIKEY=FCCDDURTIIUXBY-UHFFFAOYSA-N
INCHI=InChI=1S/C8H15NOS2/c9-8(10)4-2-1-3-7-5-6-11-12-7/h7H,1-6H2,(H2,9,10)
SMILES=N=C(O)CCCCC1CCSS1
IONMODE=positive
INSTRUMENTTYPE=LC-ESI-Orbitrap
INSTRUMENT=Orbitrap
COMMENT=DB#=CCMSLIB00010112638; origin=GNPS
NUM_PEAKS=10
COMPOUND_NAME=lipoamide
PRECURSOR_MZ=228.049
COLLISION_ENERGY=102040
PARENT_MASS=227.04172354800926
52.478661 0.003411122127519082
60.954929 0.0026734192278140122
78.402184 0.0031427751599151944
81.28595 0.0031126238152406
81.397713 0.0034937870641685944
95.574249 0.0030802111197154114
104.257561 0.0031631273175705453
127.311523 0.003072673283546763
228.048447 1.0
228.231613 0.020248638038634928
END IONS

BEGIN IONS
CHARGE=1+
PRECURSORTYPE=M+Na
FORMULA=C15H16O9
ONTOLOGY=
INCHIKEY=XHCADAYNFIFUHF-UHFFFAOYSA-N
INCHI=InChI=1S/C15H16O9/c16-5-10-12(19)13(20)14(21)15(24-10)23-9-3-6-1-2-11(18)22-8(6)4-7(9)17/h1-4,10,12-17,19-21H,5H2
SMILES=O=c1ccc2cc(OC3OC(CO)C(O)C(O)C3O)c(O)cc2o1
IONMODE=positive
INSTRUMENTTYPE=LC-ESI-Orbitrap
INSTRUMENT=Orbitrap
COMMENT=DB#=CCMSLIB00010110064; origin=GNPS
NUM_PEAKS=15
COMPOUND_NAME=NSC26665
PRECURSOR_MZ=363.069
COLLISION_ENERGY=102040
PARENT_MASS=362.06172354800924
51.551491 0.002055223302748824
55.41441 0.0021477829962866643
57.622059 0.002327926055752784
69.439392 0.0026882121746850235
75.928513 0.0026782595194659005
118.653481 0.0029041847929399847
131.40416 0.0022582574692189255
138.660919 0.002149773527330489
153.070572 0.0022254137069958207
197.612228 0.002917123244724844
201.015106 0.021891860419982145
229.967224 0.0053037699662704515
230.968613 0.0038666065526291433
361.274597 0.0024453673873384312
363.067627 1.0
END IONS

BEGIN IONS
CHARGE=1+
PRECURSORTYPE=M+Na
FORMULA=C12H11N5O
ONTOLOGY=
INCHIKEY=BUDWTFCZGZYQHZ-UHFFFAOYSA-N
INCHI=InChI=1S/C12H11N5O/c18-9-3-1-2-8(4-9)5-13-11-10-12(15-6-14-10)17-7-16-11/h1-4,6-7,18H,5H2,(H2,13,14,15,16,17)
SMILES=C1=CC(=CC(=C1)O)CNC2=NC=NC3=C2NC=N3
IONMODE=positive
INSTRUMENTTYPE=LC-ESI-Orbitrap
INSTRUMENT=Orbitrap
COMMENT=DB#=CCMSLIB00010102070; origin=GNPS
NUM_PEAKS=8
COMPOUND_NAME=meta-topolin
PRECURSOR_MZ=264.086
COLLISION_ENERGY=102040
PARENT_MASS=263.07872354800924
50.758881 0.002831773574618605
56.728054 0.003612006883388784
74.381393 0.0033915923612155554
92.431602 0.004146342019544383
97.284935 0.0030473836404356926
114.567604 0.0032500771069931995
126.676445 0.0032010775571848487
264.084625 1.0
END IONS

BEGIN IONS
CHARGE=1+
PRECURSORTYPE=M+Na
FORMULA=C25H29N3O3S
ONTOLOGY=
INCHIKEY=NGTSRFJHFKEKPL-UHFFFAOYSA-N
INCHI=InChI=1S/C25H29N3O3S/c1-3-18-7-8-23-22(13-18)19(14-25(30)31-23)16-27-9-11-28(12-10-27)17-24(29)26-20-5-4-6-21(15-20)32-2/h4-8,13-15H,3,9-12,16-17H2,1-2H3,(H,26,29)
SMILES=CCc1ccc2oc(=O)cc(CN3CCN(CC(O)=Nc4cccc(SC)c4)CC3)c2c1
IONMODE=positive
INSTRUMENTTYPE=LC-ESI-Orbitrap
INSTRUMENT=Orbitrap
COMMENT=DB#=CCMSLIB00010108051; origin=GNPS
NUM_PEAKS=14
COMPOUND_NAME=2-{4-[(6-ethyl-2-oxochromen-4-yl)methyl]piperazinyl}-N-(3-methylthiophenyl)ace tamide
PRECURSOR_MZ=474.182
COLLISION_ENERGY=102040
PARENT_MASS=473.17472354800924
60.430759 0.000816030406508586
61.499088 0.0008600003491730741
73.981209 0.0009757447570692999
79.711342 0.0008842484793189315
85.463287 0.0008292860509883215
97.376007 0.0008774590028780913
104.325783 0.001022301166949346
105.931923 0.0008603236575750188
132.237991 0.0009844740839218085
174.546356 0.0008997672826122801
211.115219 0.0010792034456916246
211.819351 0.0008861883297306
286.097656 0.004268964139278673
474.181396 1.0
END IONS

BEGIN IONS
CHARGE=1+
PRECURSORTYPE=M+Na
FORMULA=C26H23N3O4
ONTOLOGY=
INCHIKEY=VIPXLWNGZDNITH-UHFFFAOYSA-N
INCHI=InChI=1S/C26H23N3O4/c1-16-10-12-17(13-11-16)24(30)28-22-9-5-3-7-20(22)25(31)29-23(26(32)33)14-18-15-27-21-8-4-2-6-19(18)21/h2-13,15,23,27H,14H2,1H3,(H,28,30)(H,29,31)(H,32,33)
SMILES=Cc1ccc(C(=O)Nc2ccccc2C(O)=NC(Cc2c[nH]c3ccccc23)C(=O)O)cc1
IONMODE=positive
INSTRUMENTTYPE=LC-ESI-Orbitrap
INSTRUMENT=Orbitrap
COMMENT=DB#=CCMSLIB00010111461; origin=GNPS
NUM_PEAKS=38
COMPOUND_NAME=3-indol-3-yl-2-({2-[(4-methylphenyl)carbonylamino]phenyl}carbonylamino)propano ic acid
PRECURSOR_MZ=464.158
COLLISION_ENERGY=102040
PARENT_MASS=463.15072354800924
53.568359 0.0004215410961959178
62.184158 0.00040050398526763134
76.141861 0.00041315288107894284
86.437813 0.00043964898914684793
96.00573 0.010565822390596039
99.524933 0.000422872558912898
99.575211 0.0004162152453279972
119.049423 0.005026804341686886
120.044647 0.0006287166949580303
129.386337 0.0005851778641127791
129.857117 0.0004779951153958765
136.211197 0.0005958295658486204
142.026596 0.0005178058506335832
146.023468 0.0035238492267596843
146.060379 0.0008780996618484138
147.055344 0.001058379713727527
157.969452 0.0006327110831089708
159.041763 0.0020439284168362395
159.091614 0.0006557453881127275
181.073425 0.0047856764436417796
182.057648 0.010875387472293925
188.070038 0.0022491068215228817
201.981537 0.00046814229129022334
210.052582 0.010621344385894111
227.078995 0.10505826680568912
238.086014 0.016811847142221656
259.08429 0.005336768862199867
260.068848 0.002215420814783284
277.095184 0.002361082836020913
278.078522 0.0763005361667215
284.115631 0.0004544282253053277
300.111542 0.0007775742267164119
328.106384 0.0009709026132219307
410.604462 0.0005940986643165463
418.151001 0.0007722483758484912
461.583923 0.0009317576093427142
464.158051 1.0
466.756897 0.0007263129121126759
END IONS

BEGIN IONS
CHARGE=1+
PRECURSORTYPE=M+Na
FORMULA=C22H18N2O6
ONTOLOGY=
INCHIKEY=UKTFMPQSNSFGKD-UHFFFAOYSA-N
INCHI=InChI=1S/C22H18N2O6/c1-26-15-8-11(9-16(27-2)20(15)28-3)17-13(10-23)21(24)30-19-12-6-4-5-7-14(12)29-22(25)18(17)19/h4-9,17H,24H2,1-3H3
SMILES=COc1cc(C2C(C#N)=C(N)Oc3c2c(=O)oc2ccccc32)cc(OC)c1OC
IONMODE=positive
INSTRUMENTTYPE=LC-ESI-Orbitrap
INSTRUMENT=Orbitrap
COMMENT=DB#=CCMSLIB00010108669; origin=GNPS
NUM_PEAKS=13
COMPOUND_NAME="2-amino-5-oxo-4-(3,4,5-trimethoxyphenyl)-4H-pyrano[3,2-c]chromene-3-carbonitri le "
PRECURSOR_MZ=429.106
COLLISION_ENERGY=102040
PARENT_MASS=428.0987235480092
51.59713 0.006700715120499606
56.302559 0.006546261448878409
60.613571 0.006136959219082236
82.921478 0.006880911070724336
118.646606 0.008399705508332776
123.243988 0.006626062512549361
130.855606 0.006224482966334248
184.753098 0.006340323220050146
204.217896 0.006368639726514032
220.621841 0.006559132588180175
320.161346 0.00798782905067625
429.105225 1.0
447.1138 0.03561186822012737
END IONS

BEGIN IONS
CHARGE=1+
PRECURSORTYPE=M+Na
FORMULA=C22H21N5O2S
ONTOLOGY=
INCHIKEY=JBMKWMCVEFIMKX-UHFFFAOYSA-N
INCHI=InChI=1S/C22H21N5O2S/c1-3-15-6-4-5-7-17(15)25-18(28)12-30-22-26-19-20(23-13-24-21(19)29)27(22)16-10-8-14(2)9-11-16/h4-11,13H,3,12H2,1-2H3,(H,25,28)(H,23,24,29)
SMILES=CCc1ccccc1N=C(O)CSc1nc2c(O)ncnc2n1-c1ccc(C)cc1
IONMODE=positive
INSTRUMENTTYPE=LC-ESI-Orbitrap
INSTRUMENT=Orbitrap
COMMENT=DB#=CCMSLIB00010112518; origin=GNPS
NUM_PEAKS=29
COMPOUND_NAME=N-(2-ethylphenyl)-2-[9-(4-methylphenyl)-6-oxohydropurin-8-ylthio]acetamide
PRECURSOR_MZ=442.131
COLLISION_ENERGY=102040
PARENT_MASS=441.1237235480092
51.2164 0.0005922197263701724
51.67844 0.0005951721414283229
64.374969 0.000490795585549005
66.324539 0.0005659953337948363
69.458221 0.0005189303643384385
76.771217 0.0005882252824679689
87.77681 0.0005493228722899869
89.379189 0.00048558544132873963
104.274162 0.0005336924396291906
135.027939 0.0004970477586133236
161.225662 0.0004980897874573767
216.044693 0.0006422371108847207
231.906815 0.0005878779395199512
249.073914 0.008859850246561392
279.030884 0.017348564553165875
279.065643 0.000677318748634508
280.00351 0.0008608894966618606
280.038239 0.021325814979442508
280.070557 0.0010774578247508943
281.045868 0.0008443907066310201
289.069489 0.0022785697389960885
293.046509 0.002988712396218269
294.053619 0.0006286907359120305
321.040558 0.011458670183629796
402.308594 0.0005633902616847036
439.729614 0.0007094479713261449
442.130035 1.0
444.550323 0.0005779786655014469
457.74118 0.0005970825276424202
END IONS

BEGIN IONS
CHARGE=1+
PRECURSORTYPE=M+Na
FORMULA=C16H11ClN2O2
ONTOLOGY=
INCHIKEY=BXABDEVENMKCAF-UHFFFAOYSA-N
INCHI=InChI=1S/C16H11ClN2O2/c17-11-5-3-6-12(9-11)19-16(20)13-8-10-4-1-2-7-14(10)21-15(13)18/h1-9,18H,(H,19,20)
SMILES=N=c1oc2ccccc2cc1C(O)=Nc1cccc(Cl)c1
IONMODE=positive
INSTRUMENTTYPE=LC-ESI-Orbitrap
INSTRUMENT=Orbitrap
COMMENT=DB#=CCMSLIB00010104846; origin=GNPS
NUM_PEAKS=9
COMPOUND_NAME=N-(3-chlorophenyl)(2-iminochromen-3-yl)carboxamide
PRECURSOR_MZ=321.04
COLLISION_ENERGY=102040
PARENT_MASS=320.03272354800924
51.529289 0.005255369116721128
52.764111 0.006130880980940957
52.896839 0.004692375923193941
87.651077 0.005388649138045931
125.616417 0.00478199524787786
285.43576 0.005894194046519323
317.33606 0.005629931935271868
321.03949 1.0
321.163818 0.048091108384232514
END IONS

BEGIN IONS
CHARGE=1+
PRECURSORTYPE=M+Na
FORMULA=C18H18O
ONTOLOGY=
INCHIKEY=KPFVYLKSZJDQAE-UHFFFAOYSA-N
INCHI=InChI=1S/C18H18O/c1-13-11-14(2)17(15(3)12-13)9-10-18(19)16-7-5-4-6-8-16/h4-12H,1-3H3/b10-9+
SMILES=Cc1cc(C)c(C=CC(=O)c2ccccc2)c(C)c1
IONMODE=positive
INSTRUMENTTYPE=LC-ESI-Orbitrap
INSTRUMENT=Orbitrap
COMMENT=DB#=CCMSLIB00010104088; origin=GNPS
NUM_PEAKS=11
COMPOUND_NAME="(2E)-1-phenyl-3-(2,4,6-trimethylphenyl)prop-2-en-1-one "
PRECURSOR_MZ=273.125
COLLISION_ENERGY=102040
PARENT_MASS=272.1177235480092
61.856239 0.0014017021978324003
62.95512 0.0013112328566324335
66.749443 0.0020384231308347
86.797203 0.0012442397368830906
118.669319 0.0016914331259791301
185.411194 0.0015122122158804613
238.44902 0.003282090276950702
263.85556 0.001564890566452594
273.09079 0.5591159885665076
273.124969 1.0
273.162384 0.04166227680411899
END IONS

BEGIN IONS
CHARGE=1+
PRECURSORTYPE=M+Na
FORMULA=C20H27NO11
ONTOLOGY=
INCHIKEY=XUCIJNAGGSZNQT-UHFFFAOYSA-N
INCHI=InChI=1S/C20H27NO11/c21-6-10(9-4-2-1-3-5-9)30-20-18(28)16(26)14(24)12(32-20)8-29-19-17(27)15(25)13(23)11(7-22)31-19/h1-5,10-20,22-28H,7-8H2
SMILES=N#CC(OC1OC(COC2OC(CO)C(O)C(O)C2O)C(O)C(O)C1O)c1ccccc1
IONMODE=positive
INSTRUMENTTYPE=LC-ESI-Orbitrap
INSTRUMENT=Orbitrap
COMMENT=DB#=CCMSLIB00010111619; origin=GNPS
NUM_PEAKS=23
COMPOUND_NAME=amygdalin
PRECURSOR_MZ=480.148
COLLISION_ENERGY=102040
PARENT_MASS=479.14072354800925
56.081581 0.0005083915732423882
73.958847 0.0004705773239929544
84.922653 0.0005069910454924092
85.028816 0.000542004239241885
107.49987 0.0005091696442145988
127.22805 0.0004688655678540912
136.215973 0.0006878147394341463
183.009384 0.000524264221075484
185.041855 0.0018180406336672243
201.036392 0.0024227573932692815
203.052689 0.0025153478389623395
259.076019 0.0016182320080035493
318.0914 0.0006442427649903542
319.101349 0.0006708527922399558
329.083313 0.0024104638719083544
347.094482 0.0314712590697788
363.088684 0.0023812084033532368
374.105774 0.0075342168381094185
378.479004 0.0006096964138242048
404.44281 0.0005829307723801611
477.428558 0.0006700747212677453
480.146912 1.0
482.887299 0.0008059259130157113
END IONS

BEGIN IONS
CHARGE=1+
PRECURSORTYPE=M+Na
FORMULA=C20H27NO11
ONTOLOGY=
INCHIKEY=XUCIJNAGGSZNQT-UHFFFAOYSA-N
INCHI=InChI=1S/C20H27NO11/c21-6-10(9-4-2-1-3-5-9)30-20-18(28)16(26)14(24)12(32-20)8-29-19-17(27)15(25)13(23)11(7-22)31-19/h1-5,10-20,22-28H,7-8H2/t10?,11-,12-,13-,14-,15+,16+,17-,18-,19-,20-/m1/s1
SMILES=N#CC(OC1OC(COC2OC(CO)C(O)C(O)C2O)C(O)C(O)C1O)c1ccccc1
IONMODE=positive
INSTRUMENTTYPE=LC-ESI-Orbitrap
INSTRUMENT=Orbitrap
COMMENT=DB#=CCMSLIB00010113699; origin=GNPS
NUM_PEAKS=29
COMPOUND_NAME=amygdalin
PRECURSOR_MZ=480.148
COLLISION_ENERGY=102040
PARENT_MASS=479.14072354800925
57.67873 0.00041088597415941177
68.866676 0.00039772637983776394
75.142189 0.00045125909848602063
85.028137 0.0007725831734272273
88.93438 0.00040296466495608977
91.753128 0.0004921432750192954
92.063828 0.0003964487493210991
97.027611 0.00043426661261437827
104.289177 0.0005288112708475763
122.185257 0.00038954954453110894
122.221359 0.0004199571508277321
129.030365 0.0005705897887425164
131.183136 0.00042979490580605137
155.905075 0.00043068924716771674
185.041611 0.002060051445070384
201.036148 0.0022547623358101054
203.051468 0.0009706159035102771
240.972244 0.00044614857641936124
259.078156 0.002110517850478645
318.090881 0.0008746658517087477
319.098511 0.0007969859162955256
329.082977 0.002094930758175334
347.094086 0.029909074869020513
363.088013 0.002082409979112019
365.105225 0.0008498798196854499
374.10498 0.00898238134741214
468.686798 0.0005060694476509422
480.146515 1.0
482.896851 0.0005878378007174918
END IONS

BEGIN IONS
CHARGE=1+
PRECURSORTYPE=M+Na
FORMULA=C24H26ClN3O3
ONTOLOGY=
INCHIKEY=BUQYDIOQGKXORD-UHFFFAOYSA-N
INCHI=InChI=1S/C24H26ClN3O3/c1-16-3-6-20-18(12-24(30)31-22(20)11-16)14-27-7-9-28(10-8-27)15-23(29)26-21-13-19(25)5-4-17(21)2/h3-6,11-13H,7-10,14-15H2,1-2H3,(H,26,29)
SMILES=Cc1ccc2c(CN3CCN(CC(O)=Nc4cc(Cl)ccc4C)CC3)cc(=O)oc2c1
IONMODE=positive
INSTRUMENTTYPE=LC-ESI-Orbitrap
INSTRUMENT=Orbitrap
COMMENT=DB#=CCMSLIB00010108825; origin=GNPS
NUM_PEAKS=33
COMPOUND_NAME=N-(5-chloro-2-methylphenyl)-2-{4-[(7-methyl-2-oxochromen-4-yl)methyl]piperazin yl}acetamide
PRECURSOR_MZ=462.155
COLLISION_ENERGY=102040
PARENT_MASS=461.1477235480092
104.303093 0.0006935039631434722
106.064949 0.0007980132791751886
118.672974 0.00045940818703832435
130.064865 0.0007700083467428163
132.043915 0.003383886903862504
158.059006 0.0004539344956992698
186.955399 0.0047626206455671566
187.252548 0.00048003000092034393
187.958481 0.0016763497963723174
188.952744 0.004119780151096794
189.956573 0.0025383925346997025
203.081604 0.000880245944408427
208.529388 0.0007712812982170151
208.549423 0.0008951394766565522
215.081375 0.003817581471122014
228.988647 0.0005571708602567874
229.997421 0.0005928135015343521
231.000656 0.000599942029789865
231.995331 0.0017556546732148987
243.076065 0.00202679333721923
267.018555 0.0005044706692249597
272.026123 0.0006330387681190322
274.023254 0.0005075257527630367
282.361572 0.0004384044877140452
288.08609 0.002130156996924167
396.0336 0.0006520057450845934
441.002869 0.0021118264956957056
441.505188 0.00658408690999813
442.003693 0.01261418533842497
450.507599 0.0008401479729711667
451.00824 0.0016158846013478775
462.001404 0.03427192713014745
462.154907 1.0
END IONS

BEGIN IONS
CHARGE=1+
PRECURSORTYPE=M+Na
FORMULA=C20H18N4O2S
ONTOLOGY=
INCHIKEY=VXPFXXTZSHHVOO-UHFFFAOYSA-N
INCHI=InChI=1S/C20H18N4O2S/c1-13-6-8-15(9-7-13)24-18-17(19(25)22-12-21-18)23-20(24)27-11-14-4-3-5-16(10-14)26-2/h3-10,12H,11H2,1-2H3,(H,21,22,25)
SMILES=COc1cccc(CSc2nc3c(O)ncnc3n2-c2ccc(C)cc2)c1
IONMODE=positive
INSTRUMENTTYPE=LC-ESI-Orbitrap
INSTRUMENT=Orbitrap
COMMENT=DB#=CCMSLIB00010108008; origin=GNPS
NUM_PEAKS=13
COMPOUND_NAME=8-[(3-methoxyphenyl)methylthio]-9-(4-methylphenyl)hydropurin-6-one
PRECURSOR_MZ=401.104
COLLISION_ENERGY=102040
PARENT_MASS=400.0967235480092
66.742493 0.001147518152416683
74.547379 0.0010790865934322898
104.284683 0.001398204617238907
121.065048 0.0012475864120370767
147.83223 0.0008394041983965007
164.226425 0.0009274367566879813
174.540787 0.0008579735661611099
210.956833 0.0011616171168305528
233.899094 0.0010381652089139844
234.324829 0.0010027458592888963
279.030365 0.045060978021089985
280.038544 0.06464443959195534
401.103668 1.0
END IONS

BEGIN IONS
CHARGE=1+
PRECURSORTYPE=M+Na
FORMULA=C23H22F3NO6
ONTOLOGY=
INCHIKEY=VGAYRQZKEXRRFB-UHFFFAOYSA-N
INCHI=InChI=1S/C23H22F3NO6/c1-2-31-17-5-3-4-6-18(17)32-21-19(29)14-7-8-16(28)15(13-27-9-11-30-12-10-27)20(14)33-22(21)23(24,25)26/h3-8,28H,2,9-13H2,1H3
SMILES=CCOc1ccccc1Oc1c(C(F)(F)F)oc2c(CN3CCOCC3)c(O)ccc2c1=O
IONMODE=positive
INSTRUMENTTYPE=LC-ESI-Orbitrap
INSTRUMENT=Orbitrap
COMMENT=DB#=CCMSLIB00010107891; origin=GNPS
NUM_PEAKS=17
COMPOUND_NAME=3-(2-ethoxyphenoxy)-7-hydroxy-8-(morpholin-4-ylmethyl)-2-(trifluoromethyl)chro men-4-one
PRECURSOR_MZ=488.129
COLLISION_ENERGY=102040
PARENT_MASS=487.12172354800924
59.37331 0.0007166299520835374
60.252079 0.000731388367707135
66.733231 0.0007601793752351366
80.992554 0.0007454209596115391
81.145554 0.0007333238976249838
91.26516 0.0007553405504405145
92.366386 0.0009721199012395859
104.271347 0.0011349463555786205
114.123993 0.0008680851681552101
115.589561 0.0007625987876324477
118.635437 0.0009326834791634156
184.394531 0.0008419555142642507
401.059998 1.0
413.992218 0.000829132628558502
442.08667 0.010445813025390523
453.904846 0.0008777628177444544
488.128296 0.31842418831738334
END IONS

BEGIN IONS
CHARGE=1+
PRECURSORTYPE=M+Na
FORMULA=C21H25N3O8S
ONTOLOGY=
INCHIKEY=CVGAINFJTLYTKX-UHFFFAOYSA-N
INCHI=InChI=1S/C21H25N3O8S/c1-11-8-13-14(24(3)21(26)23(13)2)10-16(11)33(27,28)22-17-12(20(25)32-7)9-15(29-4)18(30-5)19(17)31-6/h8-10,22H,1-7H3
SMILES=COC(=O)c1cc(OC)c(OC)c(OC)c1NS(=O)(=O)c1cc2c(cc1C)n(C)c(=O)n2C
IONMODE=positive
INSTRUMENTTYPE=LC-ESI-Orbitrap
INSTRUMENT=Orbitrap
COMMENT=DB#=CCMSLIB00010109270; origin=GNPS
NUM_PEAKS=24
COMPOUND_NAME="methyl 3,4,5-trimethoxy-2-{[(1,3,6-trimethyl-2-oxo(3-hydrobenzimidazol-5-yl))s ulfonyl]amino}benzoate "
PRECURSOR_MZ=502.125
COLLISION_ENERGY=102040
PARENT_MASS=501.1177235480092
89.534248 0.0009320628219616259
102.471199 0.0007910941165505144
104.115883 0.0007567793658912306
110.20681 0.0007757915926078607
110.25779 0.0006890772902661572
199.267136 0.0007447228318758066
208.060608 0.004498710182716773
208.30661 0.0033076637358469044
216.026642 0.02801984876469216
225.079559 0.0008734031468481206
232.057281 0.0015054437569643874
234.072876 0.001529324968571862
248.052536 0.4457989239079678
262.068329 0.003727092005729636
263.07605 0.6871000186876277
266.062622 0.0008972843584555951
280.944458 0.000797817952828347
289.079163 0.0033276033882570287
303.215271 0.001187336744095892
304.103577 0.0015508876159456009
420.520508 0.0008108019125372651
438.15918 0.007788289117540541
487.10553 0.0009631315826936801
502.124695 1.0
END IONS

BEGIN IONS
CHARGE=1+
PRECURSORTYPE=M+Na
FORMULA=C17H26O4
ONTOLOGY=
INCHIKEY=NLDDIKRKFXEWBK-UHFFFAOYSA-N
INCHI=InChI=1S/C17H26O4/c1-3-4-5-6-14(18)12-15(19)9-7-13-8-10-16(20)17(11-13)21-2/h8,10-11,14,18,20H,3-7,9,12H2,1-2H3/t14-/m0/s1
SMILES=CCCCCC(O)CC(=O)CCc1ccc(O)c(OC)c1
IONMODE=positive
INSTRUMENTTYPE=LC-ESI-Orbitrap
INSTRUMENT=Orbitrap
COMMENT=DB#=CCMSLIB00010110570; origin=GNPS
NUM_PEAKS=10
COMPOUND_NAME=6-Gingerol
PRECURSOR_MZ=317.172
COLLISION_ENERGY=102040
PARENT_MASS=316.16472354800925
65.375526 0.0019960707543749765
73.939362 0.002231056764408617
104.270477 0.002728982510576554
112.707779 0.002075564162973717
149.150986 0.0021760228661479503
168.260254 0.00205372531445758
203.067429 0.01325093972565165
217.083725 0.01108627306073209
300.737793 0.0020511046526356432
317.171875 1.0
END IONS

BEGIN IONS
CHARGE=1+
PRECURSORTYPE=M+Na
FORMULA=C23H18O5
ONTOLOGY=
INCHIKEY=BYLCNWQEOASNRQ-UHFFFAOYSA-N
INCHI=InChI=1S/C23H18O5/c1-26-18-11-8-15(12-20(18)27-2)22-21(14-6-4-3-5-7-14)17-10-9-16(24)13-19(17)28-23(22)25/h3-13,24H,1-2H3
SMILES=COc1ccc(-c2c(-c3ccccc3)c3ccc(O)cc3oc2=O)cc1OC
IONMODE=positive
INSTRUMENTTYPE=LC-ESI-Orbitrap
INSTRUMENT=Orbitrap
COMMENT=DB#=CCMSLIB00010108175; origin=GNPS
NUM_PEAKS=15
COMPOUND_NAME="3-(3,4-Dimethoxyphenyl)-7-hydroxy-4-phenylcoumarin "
PRECURSOR_MZ=397.105
COLLISION_ENERGY=102040
PARENT_MASS=396.09772354800924
54.43924 0.0010988602971077784
60.293949 0.001051564218350525
60.54451 0.0010829475977128147
73.960472 0.001278762204156397
82.405739 0.0011293596376147925
92.384903 0.0013278263606242022
129.678085 0.0012725739321694668
138.098511 0.0012721319127418289
161.46904 0.0012990950978277397
301.189362 0.0012659436407548984
301.23877 0.0015285031807718012
312.506989 0.0011169830936409318
382.083649 0.0015506041521536954
397.104218 1.0
415.113373 0.01782310736121474
END IONS

BEGIN IONS
CHARGE=1+
PRECURSORTYPE=M+Na
FORMULA=C27H24N4O5S
ONTOLOGY=
INCHIKEY=FVPFSLOUODJMBE-UHFFFAOYSA-N
INCHI=InChI=1S/C27H24N4O5S/c1-33-21-13-18(14-22(34-2)24(21)35-3)25-30-29-23(36-25)16-37-27-28-20-12-8-7-11-19(20)26(32)31(27)15-17-9-5-4-6-10-17/h4-14H,15-16H2,1-3H3
SMILES=COc1cc(-c2nnc(CSc3nc4ccccc4c(=O)n3Cc3ccccc3)o2)cc(OC)c1OC
IONMODE=positive
INSTRUMENTTYPE=LC-ESI-Orbitrap
INSTRUMENT=Orbitrap
COMMENT=DB#=CCMSLIB00010110426; origin=GNPS
NUM_PEAKS=17
COMPOUND_NAME="3-benzyl-2-{[5-(3,4,5-trimethoxyphenyl)(1,3,4-oxadiazol-2-yl)]methylthio}-3-hy droquinazolin-4-one "
PRECURSOR_MZ=539.136
COLLISION_ENERGY=102040
PARENT_MASS=538.1287235480092
57.479561 0.0010408554332180806
66.734291 0.00131744874918356
78.68605 0.0009547366352068506
96.251091 0.0010952284782369355
122.547974 0.0008963109408698201
126.851639 0.0010428817578771682
142.816986 0.0010455835240892853
167.021439 0.0013073171258881212
195.06395 0.0016929942526678252
215.443802 0.0010013421023658692
219.334518 0.0011766191853769606
259.083771 0.07598008257948427
300.111176 0.0015160285657741608
303.041016 0.0054200807422832495
350.187622 0.0012755713728957463
395.104614 0.002162088411246642
539.13562 1.0
END IONS

BEGIN IONS
CHARGE=1+
PRECURSORTYPE=M+Na
FORMULA=C10H13N5
ONTOLOGY=
INCHIKEY=HYVABZIGRDEKCD-UHFFFAOYSA-N
INCHI=InChI=1S/C10H13N5/c1-7(2)3-4-11-9-8-10(13-5-12-8)15-6-14-9/h3,5-6H,4H2,1-2H3,(H2,11,12,13,14,15)
SMILES=CC(C)=CCNc1nc[nH]c2ncnc1-2
IONMODE=positive
INSTRUMENTTYPE=LC-ESI-Orbitrap
INSTRUMENT=Orbitrap
COMMENT=DB#=CCMSLIB00010103650; origin=GNPS
NUM_PEAKS=12
COMPOUND_NAME=Isopentenyladenine
PRECURSOR_MZ=226.106
COLLISION_ENERGY=102040
PARENT_MASS=225.09872354800925
60.028469 0.001564800348187615
64.014748 0.0014589974817715487
104.281189 0.001960959944597772
124.637703 0.001353795768005574
158.043579 0.026068984671208575
166.007828 0.0023553160830576546
170.044128 0.015216375879110606
184.094986 0.0021118492597706844
184.968994 0.011020330381473438
220.906219 0.004930052883398628
226.106171 1.0
244.117493 0.0023132353975512648
END IONS

BEGIN IONS
CHARGE=1+
PRECURSORTYPE=M+Na
FORMULA=C24H23N5OS
ONTOLOGY=
INCHIKEY=FQLVCNZBDVLHNO-UHFFFAOYSA-N
INCHI=InChI=1S/C24H23N5OS/c1-14-17(18-8-4-5-9-19(18)26-14)12-13-25-15(2)22-16(3)28-29(23(22)30)24-27-20-10-6-7-11-21(20)31-24/h4-11,25-26H,12-13H2,1-3H3/b22-15+
SMILES=CC1=NN(c2nc3ccccc3s2)C(=O)C1=C(C)NCCc1c(C)[nH]c2ccccc12
IONMODE=positive
INSTRUMENTTYPE=LC-ESI-Orbitrap
INSTRUMENT=Orbitrap
COMMENT=DB#=CCMSLIB00010104013; origin=GNPS
NUM_PEAKS=22
COMPOUND_NAME="1-benzothiazol-2-yl-3-methyl-4-({[2-(2-methylindol-3-yl)ethyl]amino}ethylidene )-1,2-diazolin-5-one "
PRECURSOR_MZ=452.152
COLLISION_ENERGY=102040
PARENT_MASS=451.1447235480092
51.73748 0.00016362844017101802
57.862598 0.00018300059043664828
108.231682 0.00019165182848262418
130.875427 0.00016698131233237708
143.072296 0.0002984884093279056
158.09639 0.03306436951598434
192.043289 0.00018904403902378933
197.104202 0.0003969635065115261
210.903976 0.00024856786825878144
224.353546 0.00020634651511574115
254.035492 0.004868328984809916
278.035614 0.1776006449435873
293.048981 0.0007147412791381148
294.0672 0.00034638066970682485
295.062164 0.022122250520647237
308.070496 0.0009361136287547615
319.062622 0.0010388522547361595
422.101105 0.0002631383744414777
449.661011 0.00021272111157067075
451.152222 0.00038595283990755676
452.151062 1.0
454.656006 0.00025485967774676395
END IONS

BEGIN IONS
CHARGE=1+
PRECURSORTYPE=M+Na
FORMULA=C7H11NO5
ONTOLOGY=
INCHIKEY=RFMMMVDNIPUKGG-UHFFFAOYSA-N
INCHI=InChI=1S/C7H11NO5/c1-4(9)8-5(7(12)13)2-3-6(10)11/h5H,2-3H2,1H3,(H,8,9)(H,10,11)(H,12,13)/t5-/m0/s1
SMILES=CC(O)=NC(CCC(=O)O)C(=O)O
IONMODE=positive
INSTRUMENTTYPE=LC-ESI-Orbitrap
INSTRUMENT=Orbitrap
COMMENT=DB#=CCMSLIB00010114047; origin=GNPS
NUM_PEAKS=8
COMPOUND_NAME=N-Acetyl-L-glutamic acid
PRECURSOR_MZ=212.053
COLLISION_ENERGY=102040
PARENT_MASS=211.04572354800925
61.24641 0.00480583499451424
83.800056 0.0041777871966551215
124.037712 0.006233015666977931
170.04245 0.02259868297604147
194.042709 0.010894256177275045
211.927536 0.01027724612630273
212.052872 1.0
229.97995 0.0191593210461135
END IONS

BEGIN IONS
CHARGE=1+
PRECURSORTYPE=M+Na
FORMULA=C25H17NO4
ONTOLOGY=
INCHIKEY=MPBPMDGZIQBQKR-UHFFFAOYSA-N
INCHI=InChI=1S/C25H17NO4/c1-15-12-18(26-24(27)23-14-17-7-3-4-8-21(17)29-23)10-11-19(15)20-13-16-6-2-5-9-22(16)30-25(20)28/h2-14H,1H3,(H,26,27)
SMILES=Cc1cc(NC(=O)c2cc3ccccc3o2)ccc1-c1cc2ccccc2oc1=O
IONMODE=positive
INSTRUMENTTYPE=LC-ESI-Orbitrap
INSTRUMENT=Orbitrap
COMMENT=DB#=CCMSLIB00010108252; origin=GNPS
NUM_PEAKS=13
COMPOUND_NAME=benzo[d]furan-2-yl-N-[3-methyl-4-(2-oxochromen-3-yl)phenyl]carboxamide
PRECURSOR_MZ=418.105
COLLISION_ENERGY=102040
PARENT_MASS=417.09772354800924
52.987801 0.0003414601596128195
56.526699 0.000320131595211067
63.25771 0.0003311005711891111
73.877647 0.00029311541363551374
74.19294 0.00029616235140719267
82.406807 0.000417328910127625
85.639053 0.00030134214561904684
157.990967 0.0003677653890416477
357.788239 0.0003463352600475058
415.896515 0.0007292337733551589
417.09845 0.0006794671230844029
418.103943 1.0
420.326355 0.0006750998456116631
END IONS

