BEGIN IONS
CHARGE=1+
PRECURSORTYPE=M+H
FORMULA=C19H19N5O3S
ONTOLOGY=
INCHIKEY=BSVSUGNFDMUUNM-UHFFFAOYSA-N
INCHI=InChI=1S/C19H19N5O3S/c1-10-13(22-18(27-10)12-7-5-6-8-14(12)26-4)9-28-19-23-15-16(24(19)3)20-11(2)21-17(15)25/h5-8H,9H2,1-4H3,(H,20,21,25)
SMILES=COc1ccccc1-c1nc(CSc2nc3c(O)nc(C)nc3n2C)c(C)o1
IONMODE=positive
INSTRUMENTTYPE=LC-ESI-Orbitrap
INSTRUMENT=Orbitrap
COMMENT=DB#=CCMSLIB00010105893; origin=GNPS
NUM_PEAKS=28
COMPOUND_NAME="8-{[2-(2-methoxyphenyl)-5-methyl(1,3-oxazol-4-yl)]methylthio}-2,9-dimethylhydr opurin-6-one "
PRECURSOR_MZ=398.128
COLLISION_ENERGY=102040
PARENT_MASS=397.1207235480092
51.295349 0.000515424949628574
69.033539 0.0005947329877687835
85.017433 0.0005497453871863255
91.05423 0.0009213955308297245
91.64167 0.0004925446579234063
92.366707 0.0006904282618599915
105.069672 0.0030985789638288868
107.049072 0.007339471950694827
118.064369 0.0005511367562765047
129.06958 0.000592877828981878
131.049377 0.004615480465255272
132.056656 0.0025373934307899777
133.064758 0.0029736649388439175
134.059891 0.05167761236117035
145.064636 0.0007480927808196369
158.059402 0.0006350826913839779
159.068329 0.0010198735431012906
160.075546 0.023327694165943026
172.075485 0.0025602737224951454
187.062668 0.0006890368927698124
197.048462 0.0010636243711591449
201.345551 0.0007389715834506851
202.086029 1.0
202.830551 0.0007760747591887947
212.29776 0.0005434069279977318
243.112854 0.0010424446416753073
380.118591 0.0037907077879102084
398.127228 0.29560131029865117
END IONS

BEGIN IONS
CHARGE=1+
PRECURSORTYPE=M+H
FORMULA=C24H20N2O3S
ONTOLOGY=
INCHIKEY=JSUSZTQAHMZNSZ-UHFFFAOYSA-N
INCHI=InChI=1S/C24H20N2O3S/c1-29-23-13-7-16(6-12-22(28)17-8-10-19(27)11-9-17)14-18(23)15-30-24-25-20-4-2-3-5-21(20)26-24/h2-14,27H,15H2,1H3,(H,25,26)/b12-6+
SMILES=COc1ccc(C=CC(=O)c2ccc(O)cc2)cc1CSc1nc2ccccc2[nH]1
IONMODE=positive
INSTRUMENTTYPE=LC-ESI-Orbitrap
INSTRUMENT=Orbitrap
COMMENT=DB#=CCMSLIB00010105790; origin=GNPS
NUM_PEAKS=92
COMPOUND_NAME=(2E)-3-[3-(benzimidazol-2-ylthiomethyl)-4-methoxyphenyl]-1-(4-hydroxyphenyl)pr op-2-en-1-one
PRECURSOR_MZ=417.127
COLLISION_ENERGY=102040
PARENT_MASS=416.11972354800923
55.015369 0.00036887474689036736
55.018311 0.008914130749204512
65.038986 0.00027066820943014174
69.03376 0.00035172114550188023
73.954147 0.0002205235753543535
79.873413 0.00020652299681805033
82.416222 0.0002873300549609488
91.054253 0.0017935782470350015
95.049294 0.00029516922186867227
107.049011 0.011554527046572172
107.057312 0.0003720133063349725
115.0541 0.002942869540063639
117.069778 0.0011263089383858837
118.659081 0.00019030951692218686
119.048988 0.0013938385883714203
121.02832 0.11759357824703501
123.044296 0.00039373734451836855
131.04924 0.0044641596760196705
133.064545 0.0011551634365056407
135.044388 0.000308041654613827
143.0495 0.0002944026612669945
144.057037 0.0008557275094012149
145.064636 0.008413595603124095
145.077713 0.00029252241828174716
147.043625 0.0016975701475267573
147.080704 0.0027001880242985246
149.059814 0.001142695979172693
152.062347 0.0004446774660109922
153.069809 0.0013045125831645935
159.044022 0.0009139137980908302
160.051102 0.0004469048307781313
161.059586 0.0014360428116864333
165.069901 0.0028089239224761355
166.077652 0.007149913219554527
167.08522 0.007142753832803009
169.064926 0.0002949667341625687
173.059174 0.004538863176164304
174.067825 0.001276786230835985
176.060638 0.0002652155047729245
178.077484 0.0012459068556551923
179.085617 0.00289716517211455
181.064194 0.005685247324269598
181.100998 0.010519395429563205
182.072159 0.0010047006074631183
183.079498 0.0016676453572461673
189.071365 0.0008042088516054382
190.076889 0.002636896152733584
191.085342 0.017406826728377206
193.066986 0.00022860862019091698
193.101654 0.002006711021116575
194.072418 0.02152980908301996
195.080109 0.017339629736765984
196.088181 0.0025805611802140584
197.059265 0.0010572461671969917
197.0961 0.0009586491177321377
199.074707 0.00021290135956031242
202.075424 0.0003087214347700318
205.065964 0.00041784784495227075
206.071808 0.0011494503905120047
207.080017 0.01176958345386173
208.08847 0.0030775527914376627
209.09584 0.0479408446630026
210.066483 0.0010573474110500433
211.07547 0.004621955452704657
211.111404 0.004087084177032109
212.082062 0.0003622360428116864
213.091476 0.0027841047150708705
218.072098 0.0010793751807925947
219.080109 0.02073262944749783
220.08815 0.0010905987850737633
221.096115 0.004128492912930286
222.067078 0.003404975412207116
223.075592 0.0013528637547006075
224.083298 0.007798466878796644
225.0905 0.002481747179635522
234.067261 0.0021821087648249927
235.075623 0.003339542956320509
236.082932 0.0035006363899334684
237.090576 0.11113132774081573
238.098694 0.002305062192652589
239.106277 0.023435203934046862
249.090393 0.02022065374602256
252.077744 0.00696083309227654
255.102097 0.004104932021984379
265.09726 0.007185941567833381
265.972443 0.001295270465721724
267.101044 1.0
268.238861 0.0011318484234885738
269.080292 0.002842450101243853
297.105225 0.0011592276540352906
417.125854 0.38870063638993346
419.340759 0.0003492189759907434
END IONS

BEGIN IONS
CHARGE=1+
PRECURSORTYPE=M+H
FORMULA=C24H20N2O3S
ONTOLOGY=
INCHIKEY=JSUSZTQAHMZNSZ-UHFFFAOYSA-N
INCHI=InChI=1S/C24H20N2O3S/c1-29-23-13-7-16(6-12-22(28)17-8-10-19(27)11-9-17)14-18(23)15-30-24-25-20-4-2-3-5-21(20)26-24/h2-14,27H,15H2,1H3,(H,25,26)/b12-6+
SMILES=COc1ccc(C=CC(=O)c2ccc(O)cc2)cc1CSc1nc2ccccc2[nH]1
IONMODE=positive
INSTRUMENTTYPE=LC-ESI-Orbitrap
INSTRUMENT=Orbitrap
COMMENT=DB#=CCMSLIB00010105793; origin=GNPS
NUM_PEAKS=35
COMPOUND_NAME=(2E)-3-[3-(benzimidazol-2-ylthiomethyl)-4-methoxyphenyl]-1-(4-hydroxyphenyl)pr op-2-en-1-one
PRECURSOR_MZ=417.127
COLLISION_ENERGY=102040
PARENT_MASS=416.11972354800923
52.690109 0.0026135635155966922
55.01828 0.01205798294644446
59.064339 0.0024431137211012558
64.662956 0.0033017947612952467
76.639412 0.0028494059985463525
86.394623 0.00265537195575595
92.36631 0.002883710359702667
107.049004 0.013000280866956967
121.028511 0.10353806604875936
145.065063 0.011843580689217497
166.077774 0.004825122798892827
167.085648 0.004573200146651144
181.065292 0.004110091271040901
181.101151 0.01179105213619689
191.084259 0.015757493894895724
194.072891 0.01479589977123279
195.080215 0.012049406856155381
195.856216 0.0029984155673190927
207.079681 0.010461758141389712
209.096176 0.039035146962027215
211.075241 0.005438313254561944
219.081085 0.020006946633134154
224.083221 0.003281426546858685
237.090805 0.10724829711007197
239.105804 0.028577676865782043
249.08992 0.01787364417372586
252.077942 0.004323421516981731
263.567108 0.0026414358090361975
265.533783 0.002996271544746823
267.101257 1.0
301.742828 0.0029448150030123516
375.854065 0.0043416457088460226
414.774689 0.002865486167838375
417.126068 0.4384108075889823
418.227692 0.0035912378085516485
END IONS

BEGIN IONS
CHARGE=1+
PRECURSORTYPE=M+H
FORMULA=C11H12O5
ONTOLOGY=
INCHIKEY=PCMORTLOPMLEFB-UHFFFAOYSA-N
INCHI=InChI=1S/C11H12O5/c1-15-8-5-7(3-4-10(12)13)6-9(16-2)11(8)14/h3-6,14H,1-2H3,(H,12,13)/b4-3+
SMILES=COc1cc(C=CC(=O)O)cc(OC)c1O
IONMODE=positive
INSTRUMENTTYPE=LC-ESI-Orbitrap
INSTRUMENT=Orbitrap
COMMENT=DB#=CCMSLIB00010113343; origin=GNPS
NUM_PEAKS=50
COMPOUND_NAME=SINAPIC ACID
PRECURSOR_MZ=225.076
COLLISION_ENERGY=102040
PARENT_MASS=224.06872354800925
55.150478 0.0013690053192140063
55.153221 0.0013450949907305772
62.018921 0.0017649158745675288
66.735687 0.0012767003301849547
77.038803 0.0023448803538283773
79.021263 0.002406602364564671
83.012108 0.0014329515465534095
86.672371 0.0012961622254621644
87.961517 0.0016331310408332805
91.05442 0.03914398799812721
95.049583 0.0014868887991788193
103.054131 0.0016820638061016933
105.033463 0.006315663044529928
119.049263 0.13615986779256511
123.043854 0.0021396963721915093
133.028244 0.002138028209739177
137.057999 0.0024777772958641804
145.244598 0.0016069964957467417
147.044174 0.15340866754968066
149.023041 0.001560844001232216
153.054688 0.001588646708771087
156.975494 0.0020006828344971547
157.039825 0.007634067436023189
164.047363 0.008183448936991279
165.006592 0.019733805756939834
166.064911 0.0055527567496633096
166.994598 0.0022575798521563225
175.039124 0.5008396417676739
177.056107 0.0013512115863891288
178.976929 0.0023443242996775996
179.069962 0.01608942685274463
181.087479 0.004976684649457903
183.017242 0.0019795527767676128
183.065506 0.008874068192256834
183.091309 0.01254235742493547
184.96904 0.014846645825757095
185.005295 0.0030338314466416
192.041779 0.08999958851992843
193.049316 0.0016503687195073805
199.44191 0.0021758398919920416
201.973495 0.006500829076738809
201.994843 0.007403304963450561
207.065384 1.0
225.008911 0.001690960672514132
225.042908 0.006342909697918022
225.074219 0.013575506037079915
225.110809 0.009862176418188309
225.138779 0.045679848486365
225.195633 0.0034191769731303514
227.041092 0.006675430080082919
END IONS

BEGIN IONS
CHARGE=1+
PRECURSORTYPE=M+H
FORMULA=C14H11ClO4
ONTOLOGY=
INCHIKEY=DDBGVQHDFCGXGM-UHFFFAOYSA-N
INCHI=InChI=1S/C14H11ClO4/c15-9-1-4-11(5-2-9)19-8-14(18)12-6-3-10(16)7-13(12)17/h1-7,16-17H,8H2
SMILES=O=C(COc1ccc(Cl)cc1)c1ccc(O)cc1O
IONMODE=positive
INSTRUMENTTYPE=LC-ESI-Orbitrap
INSTRUMENT=Orbitrap
COMMENT=DB#=CCMSLIB00010106547; origin=GNPS
NUM_PEAKS=36
COMPOUND_NAME="1-(2,4-dihydroxyphenyl)-2-(4-chlorophenoxy)ethan-1-one "
PRECURSOR_MZ=279.042
COLLISION_ENERGY=102040
PARENT_MASS=278.0347235480092
53.039028 0.0033799865414752893
55.156261 0.0028551944034215363
67.054459 0.005531543981826475
70.780006 0.0020458764073868333
80.785408 0.002153363953735192
80.948021 0.013332972030656531
82.615593 0.0023845976668879646
85.575073 0.002187687708031307
92.371834 0.0027973859751333433
95.049187 0.06543552779546656
95.085716 0.0025751848289006013
111.043961 0.015914479656401154
113.015198 0.034651636475311734
123.043983 0.9818246688435153
129.009796 0.008824817880869475
133.028168 0.032656342442677073
134.036179 0.1016443788077915
136.201141 0.0028732595372615967
137.023193 0.13282118678896762
141.010071 0.32720473667809286
149.023178 0.01460204768292077
151.03891 1.0
152.046646 0.09291530613627434
154.422485 0.002683575631940963
166.989304 0.004623771006363443
169.004684 0.01352084942259316
226.062195 0.011577041021402668
233.03598 0.06240690810718044
236.10582 0.0036581896026122184
250.122971 0.00964678147059222
261.030914 0.1273086111976732
279.041351 0.32809986405986785
279.118225 0.011999765153260079
279.155365 0.009657620550896256
279.192871 0.008952177074441901
279.231018 0.009261994119798935
END IONS

BEGIN IONS
CHARGE=1+
PRECURSORTYPE=M+H
FORMULA=C37H74NO8P
ONTOLOGY=
INCHIKEY=SLKDGVPOSSLUAI-UHFFFAOYSA-N
INCHI=InChI=1S/C37H74NO8P/c1-3-5-7-9-11-13-15-17-19-21-23-25-27-29-36(39)43-33-35(34-45-47(41,42)44-32-31-38)46-37(40)30-28-26-24-22-20-18-16-14-12-10-8-6-4-2/h35H,3-34,38H2,1-2H3,(H,41,42)
SMILES=CCCCCCCCCCCCCCCC(=O)OCC(COP(=O)(O)OCCN)OC(=O)CCCCCCCCCCCCCCC
IONMODE=positive
INSTRUMENTTYPE=LC-ESI-Orbitrap
INSTRUMENT=Orbitrap
COMMENT=DB#=CCMSLIB00010126673; origin=GNPS
NUM_PEAKS=36
COMPOUND_NAME=DIPALMITOYL CEPHALIN
PRECURSOR_MZ=692.523
COLLISION_ENERGY=102040
PARENT_MASS=691.5157235480093
52.4809 0.0010764626152985804
53.002899 0.001310172581677548
55.0546 0.00764902041483907
57.070599 0.08425774328084679
67.054802 0.022303174416685195
69.070503 0.017138507051657807
71.086098 0.071906898712429
71.092796 0.001676412716700692
71.159203 0.0011367041692775183
79.0541 0.0012568606741724443
81.065598 0.001944043604929288
81.070396 0.04035231338305743
83.086197 0.029462803574677097
85.1017 0.04466038714719814
95.085899 0.06084295137415021
97.101501 0.017143323441742634
99.116501 0.0014462838710003437
109.100998 0.026331802826794412
111.116997 0.0018670521014829639
118.699997 0.00152496653932448
123.116997 0.013123656674684509
125.132004 0.0014984199741946785
134.141998 0.0011937285458735068
137.130997 0.0024606046954904694
148.908005 0.0011705812530740673
158.028 0.0016321764470856156
189.927002 0.0012232429975272707
221.223999 0.0014359044525970395
239.235992 0.024985177099966987
273.57901 0.0012466598141073581
282.278015 0.02646497468720312
313.27301 0.016236398567905725
436.28299 0.004689157114318248
454.294006 0.0024955901410870576
551.502991 1.0
692.520996 0.15031195466887662
END IONS

BEGIN IONS
CHARGE=1+
PRECURSORTYPE=M+H
FORMULA=C22H30N2O2
ONTOLOGY=
INCHIKEY=XSUFLYSABLUBNS-UHFFFAOYSA-N
INCHI=InChI=1S/C22H30N2O2/c1-16-12-17(2)22-18(14-21(25)26-20(22)13-16)15-23-8-10-24(11-9-23)19-6-4-3-5-7-19/h12-14,19H,3-11,15H2,1-2H3
SMILES=Cc1cc(C)c2c(CN3CCN(C4CCCCC4)CC3)cc(=O)oc2c1
IONMODE=positive
INSTRUMENTTYPE=LC-ESI-Orbitrap
INSTRUMENT=Orbitrap
COMMENT=DB#=CCMSLIB00010104159; origin=GNPS
NUM_PEAKS=82
COMPOUND_NAME="4-[(4-cyclohexylpiperazinyl)methyl]-5,7-dimethylchromen-2-one "
PRECURSOR_MZ=355.238
COLLISION_ENERGY=102040
PARENT_MASS=354.2307235480092
55.054699 0.01638900742205958
56.049919 0.007416677491915875
56.053089 0.00020559575911624926
58.065609 0.0008315898422090911
61.628132 0.00012983428299320675
68.049751 0.00030636676726056213
70.065453 0.01166619090536155
71.060707 0.0007976254319640874
72.081032 0.00021365743976779427
73.076553 0.00035739354138454604
82.065292 0.00033220078934846777
82.407623 0.00018686151260214744
83.060562 0.004454994660052668
83.085709 0.028414011823920435
84.062447 0.00014091909388908117
84.068336 0.0110038047468275
85.07618 0.021437657832591505
86.083923 0.0022504914418847183
87.091782 0.014162907144646155
97.075981 0.012410568020522107
98.083878 0.0027166260620577185
98.096329 0.0002838078029373466
99.091614 0.03443643080815234
105.070107 0.0001646002808029947
111.104012 0.0001901594728686886
112.111923 0.014554287998777556
113.070763 0.0029197941559777636
117.070534 0.0002446445247721705
123.092567 0.0002466828474369077
123.104332 0.0011692185244962412
124.111931 0.0018505221495592002
125.107277 0.003704754504418259
125.117897 0.0002477363625220528
126.127563 0.006537816885886361
126.137512 0.0002743261671710408
130.077087 0.00018954110531871213
131.085648 0.0007086263097711784
135.080612 0.0002559583606865547
138.127899 0.0006642183586821278
139.086456 0.00019588509833143365
143.085739 0.0003121840027307111
145.101105 0.004078775262146617
147.080551 0.00195940064335876
151.086502 0.0010807690623477555
159.080246 0.03641532148058628
161.09581 0.01065987787653133
165.138062 0.0017554080593720793
166.130508 0.0001354453959466969
166.146027 0.006464047927424353
167.153839 0.007285469058811609
168.161667 0.00351131997378488
168.177139 0.0002326207113004059
169.064163 0.0001991601560961238
169.169357 0.0008523624113879301
171.814041 0.00015113360971461833
173.096283 0.0008688522127206358
174.067154 0.0005815861320037912
175.075058 0.015807535802565043
181.169434 0.002012374130140077
187.075043 0.02422775512058717
188.107193 0.00019423611819816306
189.090652 0.026821371845203272
200.105927 0.00035634002629940094
201.091095 0.0001779066343784142
202.12262 0.0007933655666198051
216.102676 0.00030412232207916606
228.102203 0.0009116569886801179
229.170029 0.0008474383734899694
230.117172 0.022360788974698963
230.140366 0.00167153909759379
231.149414 0.0015275510684566774
244.133484 0.001330291820014185
245.164429 0.009380727343150383
255.148148 0.001485204342534215
256.132385 0.0006666231213764807
271.142426 0.0018418879063613806
272.15152 0.002266981243217424
273.159088 0.18445198618740952
327.241272 0.0006947244911476334
353.512054 0.000802755592378707
355.237183 1.0
356.973785 0.0008222685239557421
END IONS

BEGIN IONS
CHARGE=1+
PRECURSORTYPE=M+H
FORMULA=C19H17NO3S
ONTOLOGY=
INCHIKEY=CWULQENCADQNSG-UHFFFAOYSA-N
INCHI=InChI=1S/C19H17NO3S/c1-22-16-9-8-14(11-17(16)23-2)15(21)12-24-18-7-3-5-13-6-4-10-20-19(13)18/h3-11H,12H2,1-2H3
SMILES=COc1ccc(C(=O)CSc2cccc3cccnc23)cc1OC
IONMODE=positive
INSTRUMENTTYPE=LC-ESI-Orbitrap
INSTRUMENT=Orbitrap
COMMENT=DB#=CCMSLIB00010103917; origin=GNPS
NUM_PEAKS=39
COMPOUND_NAME="1-(3,4-dimethoxyphenyl)-2-(8-quinolylthio)ethan-1-one "
PRECURSOR_MZ=340.1
COLLISION_ENERGY=102040
PARENT_MASS=339.09272354800925
59.921879 0.0005070572995986549
61.777672 0.0005928942246616034
62.549351 0.0005107739499622052
65.977524 0.0005367905025070577
68.77993 0.0005081191997025263
73.483704 0.0004713066627683134
75.526672 0.0005484714036496444
85.952248 0.0005782046065580473
104.31945 0.0007813814930987997
129.127426 0.0005382063693122196
130.064865 0.005012876423676195
136.051529 0.0013133934451384356
138.067673 0.0007443919728139414
139.074829 0.002209991099507296
148.051529 0.0013010046105932677
151.037628 0.0007291714046584496
151.075073 0.020676787872534467
160.021652 0.002520419896539073
161.029037 0.08922243957744164
162.036499 0.0011314545606751136
165.054184 0.007614885644862731
167.069855 0.0013059601444113348
169.031723 0.0020427418331475304
169.272369 0.0005396222361173817
173.030441 0.003983010306271458
174.036942 0.5082237968627578
179.069901 0.010069467734961769
180.077805 0.00956400328551892
183.047272 0.002306624008959605
202.031677 0.09345605830822677
278.062469 0.0008822620029665949
290.062347 0.0035554185311125227
298.087067 0.0010873857063644452
306.057495 0.007526040002838813
307.065369 0.00241759256981418
322.089935 0.006755277510778729
324.069519 0.0006973144015423037
325.075043 0.0006525376138290542
340.099365 1.0
END IONS

BEGIN IONS
CHARGE=1+
PRECURSORTYPE=M+H
FORMULA=C19H18O3
ONTOLOGY=
INCHIKEY=PQBNFWAEWSZZOB-UHFFFAOYSA-N
INCHI=InChI=1S/C19H18O3/c1-11(2)13-5-7-14(8-6-13)19-18(21)17(20)15-10-12(3)4-9-16(15)22-19/h4-11,21H,1-3H3
SMILES=Cc1ccc2oc(-c3ccc(C(C)C)cc3)c(O)c(=O)c2c1
IONMODE=positive
INSTRUMENTTYPE=LC-ESI-Orbitrap
INSTRUMENT=Orbitrap
COMMENT=DB#=CCMSLIB00010103531; origin=GNPS
NUM_PEAKS=19
COMPOUND_NAME=3-hydroxy-6-methyl-2-[4-(methylethyl)phenyl]chromen-4-one
PRECURSOR_MZ=295.133
COLLISION_ENERGY=102040
PARENT_MASS=294.1257235480092
64.712143 0.0014722943711070458
66.737984 0.0011228713031505673
71.380447 0.0013916582785017046
73.947433 0.0014772312747359441
90.977074 0.009289606995043897
92.36763 0.0015035614274234025
95.633232 0.0013252843519354033
103.736488 0.0012978571095526342
118.646317 0.001294565840466702
120.224617 0.0013801388367009415
141.926453 0.0018030669142432413
147.04483 0.0021102520289302553
154.894699 0.001464066198392215
157.957382 0.0015320857595014824
158.963943 0.004866141343550895
163.395477 0.0012238035551191578
237.110199 0.0019522711128055052
253.085754 0.2642735483446288
295.132538 1.0
END IONS

BEGIN IONS
CHARGE=1+
PRECURSORTYPE=M+H
FORMULA=C20H20ClN3O4
ONTOLOGY=
INCHIKEY=XEMKXRIEXQJZFH-UHFFFAOYSA-N
INCHI=InChI=1S/C20H20ClN3O4/c1-12-9-18(21)24(23-12)15-7-5-14(6-8-15)22-20(25)13-10-16(26-2)19(28-4)17(11-13)27-3/h5-11H,1-4H3,(H,22,25)
SMILES=COc1cc(C(=O)Nc2ccc(-n3nc(C)cc3Cl)cc2)cc(OC)c1OC
IONMODE=positive
INSTRUMENTTYPE=LC-ESI-Orbitrap
INSTRUMENT=Orbitrap
COMMENT=DB#=CCMSLIB00010105859; origin=GNPS
NUM_PEAKS=55
COMPOUND_NAME="N-[4-(5-chloro-3-methylpyrazolyl)phenyl](3,4,5-trimethoxyphenyl)carboxamide "
PRECURSOR_MZ=402.122
COLLISION_ENERGY=102040
PARENT_MASS=401.11472354800924
56.049561 0.0007703900399658434
66.734154 0.0006118678555896628
73.944443 0.0009191905885041854
77.42865 0.0006065110358422825
79.054398 0.002760150975020554
81.033447 0.0009352610477463264
81.070023 0.0014411829127766896
82.389969 0.0006967833686222101
91.504799 0.0006555160164942432
99.773201 0.0005900437751373726
104.27076 0.0007195994527314226
109.064583 0.0050990971973119085
111.080383 0.0007674140289950765
113.023392 0.001105092073811421
122.036171 0.0006823001152311448
123.752136 0.0006771416962151489
124.051567 0.0023814039788076276
125.449944 0.0006430167704170224
126.833351 0.0005902421758687571
128.046646 0.0024127512943663714
135.043243 0.002824829613451887
137.060486 0.0011475498303276945
138.067261 0.00387079826931074
138.740952 0.0006969817693535946
139.039459 0.0012612334494109879
139.075348 0.009561129646148327
141.017578 0.003241471149359245
152.046616 0.009239522060574124
154.062271 0.06644420653992299
156.041672 0.004839787441392424
163.038391 0.003994005123500487
169.085724 0.02494869357086398
172.085632 0.0008523295420276237
181.049347 0.027359460857916507
185.080887 0.0011473514295963101
195.065048 0.42916181246210544
198.066315 0.0013608306165659848
206.048126 0.009119886419549297
207.055603 0.015172497531894901
209.047546 0.0009428002755389358
234.042496 0.02584625847964726
266.944855 0.0009058977395014269
320.102112 0.0009180001841158788
336.095947 0.0009219681987435678
345.285278 0.0007134490300585044
350.112457 0.00137174265679213
352.130493 0.0008666143946873046
358.091553 0.0007809052787292195
362.08844 0.0009789092086509067
366.145477 0.0036039492855986462
368.077515 0.0009455778857783182
372.076599 0.005262777800704084
386.090393 0.007376539192874081
387.098022 0.0042168091448452315
402.12088 1.0
END IONS

BEGIN IONS
CHARGE=1+
PRECURSORTYPE=M+H
FORMULA=C20H15BrFN5O2S
ONTOLOGY=
INCHIKEY=VBTFCVBCINACBK-UHFFFAOYSA-N
INCHI=InChI=1S/C20H15BrFN5O2S/c1-11-2-5-13(6-3-11)27-18-17(19(29)24-10-23-18)26-20(27)30-9-16(28)25-15-7-4-12(21)8-14(15)22/h2-8,10H,9H2,1H3,(H,25,28)(H,23,24,29)
SMILES=Cc1ccc(-n2c(SCC(O)=Nc3ccc(Br)cc3F)nc3c(O)ncnc32)cc1
IONMODE=positive
INSTRUMENTTYPE=LC-ESI-Orbitrap
INSTRUMENT=Orbitrap
COMMENT=DB#=CCMSLIB00010113876; origin=GNPS
NUM_PEAKS=22
COMPOUND_NAME=N-(4-bromo-2-fluorophenyl)-2-[9-(4-methylphenyl)-6-oxohydropurin-8-ylthio]acet amide
PRECURSOR_MZ=488.019
COLLISION_ENERGY=102040
PARENT_MASS=487.01172354800923
52.70052 0.0007397489995903996
66.736649 0.0009981597554431462
82.390442 0.0009166510891691952
103.565361 0.0007297211195125319
118.646561 0.0010457279045304677
124.554543 0.0007924596512817559
189.890045 0.0008359137982858496
196.77536 0.0007947737774535716
204.377991 0.0008251145428173766
212.081802 0.018512752249394922
212.462479 0.0009477632299236056
213.08876 0.00627051055022978
230.037689 0.015033077862374802
244.05336 0.13336643390842798
257.048553 0.03089101314243678
262.064606 0.00882736284495586
271.064178 0.32843312831032534
282.081055 0.0008361709234160513
299.059113 1.0
417.187561 0.0008150866627395088
470.007019 0.001015130014036461
488.017517 0.254136564813403
END IONS

BEGIN IONS
CHARGE=1+
PRECURSORTYPE=M+H
FORMULA=C7H7NO3
ONTOLOGY=
INCHIKEY=QPEJHSFTZVMSJH-UHFFFAOYSA-N
INCHI=InChI=1S/C7H7NO3/c8-5-1-4(7(10)11)2-6(9)3-5/h1-3,9H,8H2,(H,10,11)
SMILES=Nc1cc(O)cc(C(=O)O)c1
IONMODE=positive
INSTRUMENTTYPE=LC-ESI-Orbitrap
INSTRUMENT=Orbitrap
COMMENT=DB#=CCMSLIB00010113926; origin=GNPS
NUM_PEAKS=20
COMPOUND_NAME=3-Amino-5-hydroxybenzoic acid
PRECURSOR_MZ=154.05
COLLISION_ENERGY=102040
PARENT_MASS=153.04272354800926
55.935009 0.002158182095586889
65.03933 0.01257298120110965
68.943497 0.0015061334040985352
80.050163 0.004225877299040392
81.034111 0.0018288920023164057
82.065666 0.007069426049642445
92.049957 0.030624712550003548
93.034126 0.018115138222213643
95.101936 0.0012593309562116096
104.256607 0.0013989141426168823
108.044533 0.008412639015349967
109.052544 0.0017070686114474506
110.060349 0.10296630416379875
111.044167 0.017205425720278965
126.055351 0.008449259420195514
130.453476 0.001126792977952975
135.945602 0.007392404810614898
136.039307 0.07441464411094353
137.0233 0.00223377130799353
154.049866 1.0
END IONS

BEGIN IONS
CHARGE=1+
PRECURSORTYPE=M+H
FORMULA=C7H7NO3
ONTOLOGY=
INCHIKEY=QPEJHSFTZVMSJH-UHFFFAOYSA-N
INCHI=InChI=1S/C7H7NO3/c8-5-1-4(7(10)11)2-6(9)3-5/h1-3,9H,8H2,(H,10,11)
SMILES=Nc1cc(O)cc(C(=O)O)c1
IONMODE=positive
INSTRUMENTTYPE=LC-ESI-Orbitrap
INSTRUMENT=Orbitrap
COMMENT=DB#=CCMSLIB00010126694; origin=GNPS
NUM_PEAKS=26
COMPOUND_NAME=3-Amino-5-hydroxybenzoic acid
PRECURSOR_MZ=154.05
COLLISION_ENERGY=102040
PARENT_MASS=153.04272354800926
65.039101 0.020444253125014702
66.7631 0.0015633493965440182
68.013603 0.001775036578079498
68.050003 0.0014591289763783233
80.049797 0.0054953683447889765
81.034103 0.006126581325655465
82.065697 0.009839197587493355
92.050003 0.03516835325721329
93.033997 0.019240540273524058
102.880997 0.0015354560380882484
104.315002 0.0015865335845106536
108.043999 0.010978457745849388
109.052002 0.00208267818436293
109.989998 0.0020367991945765647
110.059998 0.09778320372226064
111.043999 0.025985632224464737
114.746002 0.001582421858448713
126.055 0.012891855908241948
129.854004 0.001711858898564634
130.962997 0.007599160703616408
136.039001 0.0744231013506838
136.050995 0.002488085660922379
136.246002 0.0014530083412134984
137.022995 0.007971339722147733
148.973999 0.006056153820821513
154.050003 1.0
END IONS

BEGIN IONS
CHARGE=1+
PRECURSORTYPE=M+H
FORMULA=C22H23NO5
ONTOLOGY=
INCHIKEY=HZDFZQGZGNKKNH-UHFFFAOYSA-N
INCHI=InChI=1S/C22H23NO5/c1-3-26-19-10-9-15(13-20(19)27-4-2)11-12-23-21(24)17-14-16-7-5-6-8-18(16)28-22(17)25/h5-10,13-14H,3-4,11-12H2,1-2H3,(H,23,24)
SMILES=CCOc1ccc(CCN=C(O)c2cc3ccccc3oc2=O)cc1OCC
IONMODE=positive
INSTRUMENTTYPE=LC-ESI-Orbitrap
INSTRUMENT=Orbitrap
COMMENT=DB#=CCMSLIB00010106072; origin=GNPS
NUM_PEAKS=36
COMPOUND_NAME="N-[2-(3,4-diethoxyphenyl)ethyl](2-oxochromen-3-yl)carboxamide "
PRECURSOR_MZ=382.165
COLLISION_ENERGY=102040
PARENT_MASS=381.15772354800924
51.942951 0.0008855896717654369
59.320099 0.000942228123970768
74.826363 0.0009373172755136583
77.970398 0.001022766038667366
91.054283 0.046187839298704646
92.367996 0.0014146517455447146
93.069901 0.0019780897585237596
107.049591 0.0013220004046539128
109.064796 0.011621359178801373
109.818527 0.0009428829037650493
111.853897 0.0010826783898441035
113.955711 0.0011429181309179817
118.643478 0.0009939557277189894
119.049004 0.05305647934071532
119.085411 0.002406970523778001
121.064819 0.01196118989203336
136.052032 0.0016533189805602428
137.059616 0.529372439401767
147.080322 0.0018415681714161118
149.060104 0.001268963241317129
151.077438 0.0010852975090212286
164.083084 0.01571962591120793
165.090866 0.6875544694941368
173.024307 0.005276215582318588
191.033585 0.0611842609271289
192.602036 0.001066636284884212
193.122055 1.0
210.963913 0.001417925644516121
216.065399 0.0025418551613999455
318.111298 0.005171123425336442
320.09137 0.0014228364929732306
336.122162 0.023289535112893858
354.132812 0.031136743557457908
364.153412 0.08425346263924711
364.43515 0.0013161073865053813
382.164062 0.8813237814056943
END IONS

BEGIN IONS
CHARGE=1+
PRECURSORTYPE=M+H
FORMULA=C19H20N2O4
ONTOLOGY=
INCHIKEY=KJJMCOKZMYYDII-UHFFFAOYSA-N
INCHI=InChI=1S/C19H20N2O4/c1-2-25-18(23)13-12-17(22)21-16-11-7-6-10-15(16)19(24)20-14-8-4-3-5-9-14/h3-11H,2,12-13H2,1H3,(H,20,24)(H,21,22)
SMILES=CCOC(=O)CCC(O)=Nc1ccccc1C(O)=Nc1ccccc1
IONMODE=positive
INSTRUMENTTYPE=LC-ESI-Orbitrap
INSTRUMENT=Orbitrap
COMMENT=DB#=CCMSLIB00010105621; origin=GNPS
NUM_PEAKS=14
COMPOUND_NAME=ethyl 3-{N-[2-(N-phenylcarbamoyl)phenyl]carbamoyl}propanoate
PRECURSOR_MZ=341.15
COLLISION_ENERGY=102040
PARENT_MASS=340.1427235480092
55.018379 0.001985792093566615
76.483963 0.0016196790697760712
82.394417 0.0015368088920937521
92.374741 0.0021558614880639116
101.023071 0.023196846975269435
104.284363 0.0020340299581876665
120.044357 0.002113189530899135
129.054642 0.008281451860775628
174.03714 0.0035349696688965343
174.054626 0.17480907391339573
202.049438 0.5453129802527787
217.822311 0.0015899942300092703
247.081009 0.002292535437823557
248.09111 1.0
END IONS

BEGIN IONS
CHARGE=1+
PRECURSORTYPE=M+H
FORMULA=C16H12O4
ONTOLOGY=
INCHIKEY=IPRIGHIBTRMTDP-UHFFFAOYSA-N
INCHI=InChI=1S/C16H12O4/c1-19-11-7-8-12-13(9-11)20-16(15(18)14(12)17)10-5-3-2-4-6-10/h2-9,18H,1H3
SMILES=COc1ccc2c(=O)c(O)c(-c3ccccc3)oc2c1
IONMODE=positive
INSTRUMENTTYPE=LC-ESI-Orbitrap
INSTRUMENT=Orbitrap
COMMENT=DB#=CCMSLIB00010105971; origin=GNPS
NUM_PEAKS=22
COMPOUND_NAME=3-Hydroxy-7-methoxyflavone
PRECURSOR_MZ=269.081
COLLISION_ENERGY=102040
PARENT_MASS=268.07372354800924
51.9212 0.00036676666094805993
52.687759 0.000381157028061341
66.51384 0.00030720305446178337
69.134064 0.0003381110603485697
74.316917 0.00034649501336239436
74.847816 0.00033798592672149773
92.379807 0.0003493730867850506
105.033401 0.00488384033099346
107.377747 0.00044760298403657804
118.652634 0.0003904169164646697
135.044281 0.0008591674834764174
151.038437 0.0033722261159635845
163.039734 0.0027141483711918867
185.094864 0.0005044136507272704
195.079391 0.0007835867727249236
213.092407 0.0032408358075379745
226.062057 0.006839053253993609
240.076859 0.0004428479062078417
251.071716 0.0007390392014872883
254.057098 0.016792807619436606
268.070251 0.0013500667024799106
269.080383 1.0
END IONS

BEGIN IONS
CHARGE=1+
PRECURSORTYPE=M+H
FORMULA=C16H12O4
ONTOLOGY=
INCHIKEY=IPRIGHIBTRMTDP-UHFFFAOYSA-N
INCHI=InChI=1S/C16H12O4/c1-19-11-7-8-12-13(9-11)20-16(15(18)14(12)17)10-5-3-2-4-6-10/h2-9,18H,1H3
SMILES=COc1ccc2c(=O)c(O)c(-c3ccccc3)oc2c1
IONMODE=positive
INSTRUMENTTYPE=LC-ESI-Orbitrap
INSTRUMENT=Orbitrap
COMMENT=DB#=CCMSLIB00010105974; origin=GNPS
NUM_PEAKS=33
COMPOUND_NAME=3-Hydroxy-7-methoxyflavone
PRECURSOR_MZ=269.081
COLLISION_ENERGY=102040
PARENT_MASS=268.07372354800924
79.017998 0.015160025551223595
79.588966 0.006329985241965682
84.96035 0.008507896649705941
107.012863 0.10452322738386308
133.063782 0.007800281944536224
134.072754 0.131371285711139
135.007812 0.05708550849137646
135.043823 0.03247042886407189
137.023026 0.022828145994405163
137.2612 0.006327231877354127
153.018402 0.3921672283530474
153.799713 0.006646622172294544
161.023651 0.025441089010771162
161.061356 0.006467653472543448
171.080612 0.008127932333311307
173.059647 0.009053062842793894
181.064926 0.00799026410273354
195.080551 0.014840635256283178
199.075409 0.02425989559241393
210.065643 0.007563492587942465
213.09169 0.061906649926209825
223.075653 0.07349005484702306
225.090057 0.01022599616731646
227.069763 0.10904149871142536
230.910812 0.006776030309037644
236.046524 0.025658604815084033
241.085861 0.49267054340403976
251.070023 0.23692151809511222
254.055283 0.009741403995682725
269.080688 1.0
269.208313 0.012637943567038921
292.745056 0.006098702614595035
352.462738 0.0069467389149540735
END IONS

BEGIN IONS
CHARGE=1+
PRECURSORTYPE=M+H
FORMULA=C22H21NO6
ONTOLOGY=
INCHIKEY=NOXAIIKFHLFPJK-UHFFFAOYSA-N
INCHI=InChI=1S/C22H21NO6/c1-13-16-5-4-15(26-2)10-19(16)29-22(25)17(13)6-8-21(24)23-11-14-3-7-18-20(9-14)28-12-27-18/h3-5,7,9-10H,6,8,11-12H2,1-2H3,(H,23,24)
SMILES=COc1ccc2c(C)c(CCC(O)=NCc3ccc4c(c3)OCO4)c(=O)oc2c1
IONMODE=positive
INSTRUMENTTYPE=LC-ESI-Orbitrap
INSTRUMENT=Orbitrap
COMMENT=DB#=CCMSLIB00010108322; origin=GNPS
NUM_PEAKS=19
COMPOUND_NAME="N-(2H-benzo[3,4-d]1,3-dioxolen-5-ylmethyl)-3-(7-methoxy-4-methyl-2-oxochromen- 3-yl)propanamide "
PRECURSOR_MZ=396.144
COLLISION_ENERGY=102040
PARENT_MASS=395.13672354800923
51.023781 0.0013604669934851859
71.400681 0.00031515639880543906
75.849113 0.0003638209386859365
77.039223 0.0016210037270710227
79.054626 0.00353241286325683
95.049362 0.0006680906239808245
105.033401 0.0014585404639135687
107.049553 0.00034521117200123384
118.988297 0.00034521117200123384
125.260178 0.00036735679435602995
132.840591 0.00036363484101908943
135.044067 1.0
136.203598 0.0003917355887129904
203.070236 0.14327985041469538
217.064087 0.0003443737325004222
217.085861 0.015924005156766348
245.080627 0.26613510969759596
332.043427 0.000819760222461151
396.143799 0.1434389639198496
END IONS

BEGIN IONS
CHARGE=1+
PRECURSORTYPE=M+H
FORMULA=C17H14ClNO3
ONTOLOGY=
INCHIKEY=CRWHAWNMCHVQSU-UHFFFAOYSA-N
INCHI=InChI=1S/C17H14ClNO3/c18-14-5-1-13(2-6-14)10-19-17(20)8-4-12-3-7-15-16(9-12)22-11-21-15/h1-9H,10-11H2,(H,19,20)/b8-4+
SMILES=OC(C=Cc1ccc2c(c1)OCO2)=NCc1ccc(Cl)cc1
IONMODE=positive
INSTRUMENTTYPE=LC-ESI-Orbitrap
INSTRUMENT=Orbitrap
COMMENT=DB#=CCMSLIB00010106377; origin=GNPS
NUM_PEAKS=33
COMPOUND_NAME="(2E)-3-(2H-benzo[3,4-d]1,3-dioxolen-5-yl)-N-[(4-chlorophenyl)methyl]prop-2-ena mide "
PRECURSOR_MZ=316.074
COLLISION_ENERGY=102040
PARENT_MASS=315.06672354800924
56.41172 0.0003340981863091317
63.023479 0.0004115197171303967
66.778664 0.00038309730922483155
74.623703 0.0003271274777514816
82.914543 0.0003457208949293141
89.038399 0.004168775378920717
98.999527 0.00048741002536054604
104.297859 0.00041580714038552045
106.064888 0.00153161633406762
117.033524 0.0033397860511630174
119.049873 0.00044834197467865327
124.650482 0.00036049354716550575
125.015182 0.7415529012030685
135.043884 0.003328119593325946
140.02623 0.0015083271676103664
144.043777 0.0007812151829148925
145.028244 0.03176324393793351
146.059448 0.0005217969098353139
147.04361 0.001465627931926685
149.023071 0.0005237656245953197
149.059662 0.00221616033073008
151.030182 0.007820887089454432
163.038651 0.01420211869874196
174.054993 0.003695029692301841
175.038788 0.4527485124682935
176.026688 0.0006519799962247342
186.054916 0.0015940464665682485
190.049881 0.0007409950695215889
212.499924 0.0005805958573341537
245.036789 0.001531091343464952
299.049927 0.0005420965464718181
316.072906 1.0
317.544586 0.0004440983006404185
END IONS

BEGIN IONS
CHARGE=1+
PRECURSORTYPE=M+H
FORMULA=C23H17F3N4O
ONTOLOGY=
INCHIKEY=HAABNOIHSDVBOG-UHFFFAOYSA-N
INCHI=InChI=1S/C23H17F3N4O/c24-23(25,26)20-12-18(16-7-2-1-3-8-16)27-21-13-19(28-30(20)21)22(31)29-11-10-15-6-4-5-9-17(15)14-29/h1-9,12-13H,10-11,14H2
SMILES=O=C(c1cc2nc(-c3ccccc3)cc(C(F)(F)F)n2n1)N1CCc2ccccc2C1
IONMODE=positive
INSTRUMENTTYPE=LC-ESI-Orbitrap
INSTRUMENT=Orbitrap
COMMENT=DB#=CCMSLIB00010106968; origin=GNPS
NUM_PEAKS=46
COMPOUND_NAME="5-phenyl-7-(trifluoromethyl)(8-hydropyrazolo[1,5-a]pyrimidin-2-yl) 2-1,2,3,4-t etrahydroisoquinolyl ketone "
PRECURSOR_MZ=423.143
COLLISION_ENERGY=102040
PARENT_MASS=422.1357235480092
78.252411 0.00022128783683168562
82.395943 0.0001853114681926444
89.692322 0.00026946044959091247
91.054482 0.001361509086293724
105.070183 0.0019337323658639722
111.654793 0.00016092918601429845
115.054131 0.007176219010007085
116.049393 0.0002933834589781217
117.069733 0.0497449280566523
124.540314 0.0001821782071508896
130.065109 0.00037845098595866314
132.080612 0.01424118173787681
133.065033 0.00022422718269496047
135.080292 0.0007546668443337944
136.199356 0.00019798739722801722
140.049133 0.00040839557194077575
142.064987 0.02653989472079603
154.028534 0.00029039308280472056
160.075485 0.19137838011506397
163.121964 0.00019624216062169778
180.335953 0.00018828143224199504
183.09111 0.0009438157918479366
188.374298 0.0002006715915406606
193.063431 0.0002565906053770597
197.044495 0.00035788577097776444
199.273468 0.0002036415555900112
235.047104 0.00045958917905947953
239.077133 0.0002464049554758503
242.05191 0.0027896331394263196
253.058365 0.00026757232811623936
260.062714 0.0013255531297787335
262.058838 0.0008992357129216012
264.074127 0.003330258450966363
276.074066 0.0002254723222620422
290.052002 0.019794218437324533
308.063354 0.376913953017659
310.068878 0.0004632837735126236
319.081665 0.00034756744227022664
380.134247 0.00127024647966385
394.114288 0.00043590090909885124
395.147156 0.0004060992079850923
405.131287 0.0016708752384034028
420.886719 0.0003901573391016363
422.13501 0.0009213114250822384
423.141754 1.0
425.418121 0.00046202842788351667
END IONS

BEGIN IONS
CHARGE=1+
PRECURSORTYPE=M+H
FORMULA=C20H18O6
ONTOLOGY=
INCHIKEY=ACNCWTVOJNBNEN-UHFFFAOYSA-N
INCHI=InChI=1S/C20H18O6/c1-3-13-4-6-14(7-5-13)26-18-11-25-17-10-15(24-12-19(21)23-2)8-9-16(17)20(18)22/h4-11H,3,12H2,1-2H3
SMILES=CCc1ccc(Oc2coc3cc(OCC(=O)OC)ccc3c2=O)cc1
IONMODE=positive
INSTRUMENTTYPE=LC-ESI-Orbitrap
INSTRUMENT=Orbitrap
COMMENT=DB#=CCMSLIB00010110175; origin=GNPS
NUM_PEAKS=73
COMPOUND_NAME=methyl 2-[3-(4-ethylphenoxy)-4-oxochromen-7-yloxy]acetate
PRECURSOR_MZ=355.118
COLLISION_ENERGY=102040
PARENT_MASS=354.1107235480092
51.12466 0.000276773654862181
53.01128 0.0003026653838654173
58.492531 0.00029248725591242094
59.71648 0.0003216824124091736
62.839088 0.0002903444921328428
66.294167 0.00027570227297239193
66.738808 0.0004581943215331332
73.939651 0.0002784700095210137
79.054497 0.004806754848538743
91.054153 0.001475471425887872
93.069489 0.0005443512818370057
103.05423 0.002138656815667317
104.278687 0.00033944949541484264
105.069794 0.006015273620220833
107.048889 0.0034894015332189096
118.643539 0.00030596881135893365
121.06469 0.005301376154324704
131.049271 0.0005685466561814092
133.06459 0.002736220064697181
135.04425 0.0013627084819875705
136.194016 0.0004058751725817661
136.205017 0.0003078437296660646
137.378403 0.0003357889406247299
146.073227 0.000413642691282737
147.045792 0.00031918252133299906
147.080078 0.0012328927096747926
149.023132 0.000472747258869435
149.059494 0.0003875723986312025
163.038513 0.0023831997320116764
173.059708 0.0017834937192022348
188.049149 0.0003123971026976682
193.049271 0.021641824891915424
202.731155 0.00032034318504693725
206.056503 0.0004407843658240605
209.044235 0.011977245991424659
209.095535 0.0003902508533556752
209.379105 0.0005774748385963183
209.397858 0.0003609664150347735
211.076035 0.0005139954616263148
221.044601 0.001602608743476177
223.059616 0.0005243521532276094
225.054382 0.00182715253121114
226.062851 0.0005024781063110821
234.051712 0.0004181067824901915
235.060226 0.004524445720579318
236.084076 0.0003410565682495263
237.090607 0.0028854099928503113
239.054474 0.01575404571657949
251.05452 0.004073751072274708
253.085144 0.0018478659144137292
254.057526 0.0025080157221721053
254.093292 0.013780024584643098
254.123169 0.000532833926521773
261.074188 0.0011392360761423967
267.065155 0.0014992203911115302
267.099182 0.0008768367949682193
282.088013 0.026013777256848093
283.098297 0.00059497407612954
295.096375 0.006706672066431391
296.104095 0.0006330974150412018
297.075684 0.0005530116187794675
298.083466 0.0014092243123692467
299.126709 0.0007130939294787869
308.89859 0.001192715888807702
326.072723 0.0003674839881976571
327.085449 0.031083645641154206
331.913086 0.0011503963041610329
337.107239 0.0006761312542810635
340.093689 0.0015834131512841227
353.375793 0.00041605330053476244
354.108093 0.0004357845836717114
355.117004 1.0
356.867554 0.00047319366799018043
END IONS

BEGIN IONS
CHARGE=1+
PRECURSORTYPE=M+H
FORMULA=C16H15ClO3
ONTOLOGY=
INCHIKEY=PKCZFUBMPFFRFE-UHFFFAOYSA-N
INCHI=InChI=1S/C16H15ClO3/c1-11(18)13-5-8-15(16(9-13)19-2)20-10-12-3-6-14(17)7-4-12/h3-9H,10H2,1-2H3
SMILES=COc1cc(C(C)=O)ccc1OCc1ccc(Cl)cc1
IONMODE=positive
INSTRUMENTTYPE=LC-ESI-Orbitrap
INSTRUMENT=Orbitrap
COMMENT=DB#=CCMSLIB00010107171; origin=GNPS
NUM_PEAKS=18
COMPOUND_NAME=1-acetyl-4-[(4-chlorophenyl)methoxy]-3-methoxybenzene
PRECURSOR_MZ=291.078
COLLISION_ENERGY=102040
PARENT_MASS=290.0707235480092
89.03862 0.002209607919990111
90.046989 0.0005793834527713195
92.368874 0.0006741097744519695
108.119186 0.00048512299824647604
123.044273 0.0006261254574039025
124.055672 0.0006742650635039049
125.015282 1.0
155.026367 0.0007120003031242293
165.054428 0.0021726491256294643
189.046097 0.0006301629727542252
204.663361 0.00048683117781776644
217.040436 0.000643673120272613
231.056915 0.003483599302068885
249.069092 0.003393997519102106
259.052032 0.012723453181282575
263.082581 0.0017255719451071837
291.077911 0.21211226653067486
291.193298 0.0025995387294001308
END IONS

BEGIN IONS
CHARGE=1+
PRECURSORTYPE=M+H
FORMULA=C29H30N4O2
ONTOLOGY=
INCHIKEY=HXNGFYZLCLPCNU-UHFFFAOYSA-N
INCHI=InChI=1S/C29H30N4O2/c34-29(35-20-23-14-9-17-32-16-8-7-15-26(23)32)25-19-28-30-24(21-10-3-1-4-11-21)18-27(33(28)31-25)22-12-5-2-6-13-22/h1-6,10-13,18-19,23,26H,7-9,14-17,20H2
SMILES=O=C(OCC1CCCN2CCCCC12)c1cc2nc(-c3ccccc3)cc(-c3ccccc3)n2n1
IONMODE=positive
INSTRUMENTTYPE=LC-ESI-Orbitrap
INSTRUMENT=Orbitrap
COMMENT=DB#=CCMSLIB00010107582; origin=GNPS
NUM_PEAKS=27
COMPOUND_NAME="(6-azabicyclo[4.4.0]dec-2-yl)methyl 5,7-diphenyl-8-hydropyrazolo[1,5-a]pyrimid ine-2-carboxylate "
PRECURSOR_MZ=467.244
COLLISION_ENERGY=102040
PARENT_MASS=466.23672354800925
56.049801 0.0006924845334998025
58.06559 0.0048516350014947114
60.236759 0.0002823852585243698
67.054558 0.0017874138211193388
69.070213 0.0014012765244747897
70.065376 0.0024833096084787465
79.054199 0.000531656394216477
81.070221 0.0007350836060880398
82.06514 0.0005284115429841699
84.08107 0.005931588052657446
92.369537 0.00031549938135663237
93.069809 0.0007052143344880844
96.08091 0.002660778010491852
98.096474 0.03097277062288081
107.085449 0.00034229020435157844
109.101318 0.0006952301768502162
110.096382 0.004136103704114163
124.112068 0.010626388577923978
137.119995 0.0016910666999139115
150.127457 0.0015532853245113316
150.29776 0.00037881558104344595
152.143311 0.6208904687154324
185.377975 0.00036117690254987896
316.107849 0.007447016779458527
320.033356 0.00039420782406849263
466.244385 0.0003887165373676652
467.243622 1.0
END IONS

BEGIN IONS
CHARGE=1+
PRECURSORTYPE=M+H
FORMULA=C17H19NO5
ONTOLOGY=
INCHIKEY=VABYUUZNAVQNPG-UHFFFAOYSA-N
INCHI=InChI=1S/C17H19NO5/c1-21-13-10-12(11-14(22-2)17(13)23-3)7-8-16(20)18-9-5-4-6-15(18)19/h4,6-8,10-11H,5,9H2,1-3H3/b8-7+
SMILES=COc1cc(C=CC(=O)N2CCC=CC2=O)cc(OC)c1OC
IONMODE=positive
INSTRUMENTTYPE=LC-ESI-Orbitrap
INSTRUMENT=Orbitrap
COMMENT=DB#=CCMSLIB00010106258; origin=GNPS
NUM_PEAKS=43
COMPOUND_NAME=Piperlongumine
PRECURSOR_MZ=318.134
COLLISION_ENERGY=102040
PARENT_MASS=317.12672354800924
56.09626 0.0002281280987506553
60.528069 0.00027834055621859567
81.243179 0.00026601103421947033
88.213783 0.00022582829153838322
98.060059 0.00787370940888183
104.268997 0.00027501861246753597
105.06945 0.0003450349653744859
133.064819 0.0009679633022318479
135.044281 0.0005249309962011018
135.081375 0.0002407770384181517
147.044144 0.0030492888293380785
149.059372 0.0003209508731793033
150.067093 0.0004508260971390015
160.052185 0.0008596807126540376
161.059616 0.0021142894304821305
162.067444 0.014551966252117899
163.038559 0.002555788531704695
163.075409 0.00251956656811141
165.09166 0.0004600253259880898
167.070526 0.0004325554065081733
174.031311 0.0015144230492811633
175.038559 0.00223496542559274
176.046494 0.0034658733524276955
177.054138 0.002999523556605858
178.062286 0.012223475333226094
178.079361 0.0005044243818916758
188.046234 0.0012343576376533637
189.054718 0.008319297056259545
190.062393 0.07889718622420591
191.033905 0.018325886003922705
191.069763 0.0062444876495880855
192.041504 0.0005661358754209765
193.085876 0.06598734620518394
206.057327 0.03351317399843076
220.235123 0.0005403908113502641
221.08078 1.0
221.932129 0.0004107072379915886
222.084274 0.001118600674635669
290.135315 0.0004889645667425134
294.917633 0.0002923310500932508
294.954651 0.0014502200979385677
318.132294 0.019066040625072268
318.278748 0.0014543725276273923
END IONS

BEGIN IONS
CHARGE=1+
PRECURSORTYPE=M+H
FORMULA=C22H20ClN3O3
ONTOLOGY=
INCHIKEY=SFZFYNRNHREGAY-UHFFFAOYSA-N
INCHI=InChI=1S/C22H20ClN3O3/c23-15-6-5-7-16(12-15)24-20(27)14-26-19-9-2-1-8-17(19)18(13-21(26)28)22(29)25-10-3-4-11-25/h1-2,5-9,12-13H,3-4,10-11,14H2,(H,24,27)
SMILES=O=C(c1cc(=O)n(CC(O)=Nc2cccc(Cl)c2)c2ccccc12)N1CCCC1
IONMODE=positive
INSTRUMENTTYPE=LC-ESI-Orbitrap
INSTRUMENT=Orbitrap
COMMENT=DB#=CCMSLIB00010113681; origin=GNPS
NUM_PEAKS=31
COMPOUND_NAME=N-(3-chlorophenyl)-2-[2-oxo-4-(pyrrolidinylcarbonyl)hydroquinolyl]acetamide
PRECURSOR_MZ=410.127
COLLISION_ENERGY=102040
PARENT_MASS=409.11972354800923
62.683689 0.001518330590045878
66.741524 0.0017778690856221752
70.065453 0.0035727570889870584
73.44416 0.001515899316082634
73.951721 0.0016028173602686071
82.065247 0.006196709513818146
82.396507 0.0017486937980632472
84.080772 0.01045387022345839
92.375038 0.0020763079646103763
96.044708 0.002018565207983331
98.060059 0.0064665809237382296
158.060776 0.002769828862625727
160.075867 0.006446522913541467
186.055191 0.017720948099594708
188.070419 0.0030749537450128492
227.117203 0.0035709336335146254
243.1129 0.027549373096008578
255.112457 0.32564240336293815
269.127289 0.0018459447565930072
270.131561 0.009443675891730507
271.134583 0.010241741570165351
283.107422 1.0
296.139404 0.009721448942031134
297.123657 0.006769882350652919
298.126007 0.03689579802920932
299.099915 0.008347171334307464
299.131073 0.053382874592457705
366.763489 0.0018204163799789453
372.776642 0.002043485766106582
409.151794 0.0017420077946643262
543.560486 0.0016380708327356451
END IONS

BEGIN IONS
CHARGE=1+
PRECURSORTYPE=M+H
FORMULA=C17H15ClO2
ONTOLOGY=
INCHIKEY=GGOYJPNYLCAKIL-UHFFFAOYSA-N
INCHI=InChI=1S/C17H15ClO2/c1-2-20-16-10-3-13(4-11-16)5-12-17(19)14-6-8-15(18)9-7-14/h3-12H,2H2,1H3/b12-5+
SMILES=CCOc1ccc(C=CC(=O)c2ccc(Cl)cc2)cc1
IONMODE=positive
INSTRUMENTTYPE=LC-ESI-Orbitrap
INSTRUMENT=Orbitrap
COMMENT=DB#=CCMSLIB00010104262; origin=GNPS
NUM_PEAKS=46
COMPOUND_NAME=(2E)-1-(4-chlorophenyl)-3-(4-ethoxyphenyl)prop-2-en-1-one
PRECURSOR_MZ=287.083
COLLISION_ENERGY=102040
PARENT_MASS=286.07572354800925
51.02367 0.00034751369610603764
58.045448 0.000313950854731202
59.138321 0.0002566174486410039
65.480492 0.00024510591730085986
66.010551 0.00024495641689384497
86.999847 0.002235928087314218
91.054283 0.00120108626995737
94.041321 0.0013446814108951412
95.049248 0.0023029790198603817
107.049088 0.0038557649973202054
110.999657 0.0005479937419129624
119.049103 0.010421673373005758
122.072647 0.0015708755267086214
123.044228 0.0034680356917271707
123.081017 0.0005489654945585589
129.010025 0.0011181135440641236
137.01532 0.0034577201636431455
138.994507 0.337525872914189
147.043976 0.09102279955957181
147.079605 0.0006384414881569515
151.075363 0.0024404446441105435
159.479279 0.0002896570385912876
165.010056 0.039198259217260716
174.131683 0.00041568588170481295
175.075256 0.06170277973581783
178.076492 0.0005670550438073567
195.080185 0.0013159773327482884
196.089447 0.0004307106726098062
199.028702 0.00028569527780539385
206.071732 0.00197534887788732
213.046295 0.01591768208588948
217.040482 0.00036597699637237264
223.074829 0.005442637067579416
224.083328 0.0057987470370888085
231.056961 0.0026750855329203634
240.905441 0.00036956500614072923
241.041092 0.016024425376498088
245.071533 0.0005954601211401798
251.106812 0.002718889152175717
252.113953 0.006198511125446539
258.042999 0.0012356208639778023
259.051758 0.06690778590644714
265.033905 0.0003431781843026068
269.072052 0.008835922555799158
287.082825 1.0
288.343475 0.00044304445618853196
END IONS

BEGIN IONS
CHARGE=1+
PRECURSORTYPE=M+H
FORMULA=C15H15N5O2S
ONTOLOGY=
INCHIKEY=XLJQMEUZSPZIKG-UHFFFAOYSA-N
INCHI=InChI=1S/C15H15N5O2S/c1-22-11-4-2-10(3-5-11)6-16-12(21)7-23-15-13-14(18-8-17-13)19-9-20-15/h2-5,8-9H,6-7H2,1H3,(H,16,21)(H,17,18,19,20)
SMILES=COc1ccc(CN=C(O)CSc2ncnc3[nH]cnc23)cc1
IONMODE=positive
INSTRUMENTTYPE=LC-ESI-Orbitrap
INSTRUMENT=Orbitrap
COMMENT=DB#=CCMSLIB00010110213; origin=GNPS
NUM_PEAKS=26
COMPOUND_NAME=N-[(4-methoxyphenyl)methyl]-2-purin-6-ylthioacetamide
PRECURSOR_MZ=330.102
COLLISION_ENERGY=102040
PARENT_MASS=329.0947235480092
55.74596 0.00039175865588357236
73.95578 0.0003524232608832788
78.046768 0.002515915565731405
91.054176 0.003143595431952775
106.04097 0.0006717099839157888
118.653374 0.00036983475670032646
119.035767 0.0008058970092702086
120.721329 0.0006252641351263345
121.064636 1.0
121.408928 0.000842269715191685
121.418701 0.00036290662223909285
130.026001 0.00041322675674700023
134.05835 0.007188486461513666
151.061432 0.0005306404039321174
153.022842 0.0005016060509597107
164.71759 0.0004137281348988
165.022705 0.08131729178494633
166.120316 0.000342350118015301
167.038284 0.08500912143597619
170.115082 0.00038369102562279373
179.037674 0.0005429925383991852
192.327438 0.0003885680676448463
193.017548 0.7600159401788407
193.712097 0.0004900743534683152
222.043304 0.0007015191940318862
330.101074 0.26841128943156844
END IONS

BEGIN IONS
CHARGE=1+
PRECURSORTYPE=M+H
FORMULA=C15H26N2
ONTOLOGY=
INCHIKEY=SLRCCWJSBJZJBV-UHFFFAOYSA-N
INCHI=InChI=1S/C15H26N2/c1-3-7-16-11-13-9-12(14(16)5-1)10-17-8-4-2-6-15(13)17/h12-15H,1-11H2/t12?,13?,14-,15?/m1/s1
SMILES=C1CCN2CC3CC(CN4CCCCC34)C2C1
IONMODE=positive
INSTRUMENTTYPE=LC-ESI-Orbitrap
INSTRUMENT=Orbitrap
COMMENT=DB#=CCMSLIB00010108475; origin=GNPS
NUM_PEAKS=21
COMPOUND_NAME="Pachycarpine HI, (+)-Sparteine HI "
PRECURSOR_MZ=235.217
COLLISION_ENERGY=102040
PARENT_MASS=234.20972354800926
61.011051 0.00045606118511491446
68.958107 0.00021129269227001269
71.472511 0.00020331516295706584
73.935448 0.0002798845330916117
79.021347 0.0010161284766930143
82.379677 0.00025744307212715375
98.096298 0.002169067853285631
99.986893 0.0012066945040191091
117.853432 0.0002651223760452241
117.997147 0.00048551094285897056
174.984467 0.0011129771736791635
211.930405 0.0006642225107387237
211.984787 0.00041222205206806634
214.947784 0.0003590633754313271
216.977539 0.002682761095960433
233.200821 0.005558026684313658
234.284958 0.001261940758419984
234.951721 0.006482599964779581
234.98822 0.017236011253237052
235.216705 1.0
236.153564 0.0010613096240168068
END IONS

BEGIN IONS
CHARGE=1+
PRECURSORTYPE=M+H
FORMULA=C15H26N2
ONTOLOGY=
INCHIKEY=SLRCCWJSBJZJBV-UHFFFAOYSA-N
INCHI=InChI=1S/C15H26N2/c1-3-7-16-11-13-9-12(14(16)5-1)10-17-8-4-2-6-15(13)17/h12-15H,1-11H2/t12-,13-,14-,15+/m1/s1
SMILES=C1CCN2CC3CC(CN4CCCCC34)C2C1
IONMODE=positive
INSTRUMENTTYPE=LC-ESI-Orbitrap
INSTRUMENT=Orbitrap
COMMENT=DB#=CCMSLIB00010112991; origin=GNPS
NUM_PEAKS=21
COMPOUND_NAME=Pachycarpine
PRECURSOR_MZ=235.217
COLLISION_ENERGY=102040
PARENT_MASS=234.20972354800926
51.493629 0.00028869449749417697
60.921989 0.0002873385937877464
61.01104 0.0003928730989382596
66.735779 0.0003996526174704125
66.825867 0.0002837228505705982
79.021423 0.0016339769582243808
83.949051 0.0002952480320752581
98.096451 0.0022102360334573757
99.9869 0.0020165677873888754
104.186043 0.00036699793654054275
117.998169 0.0003735514711216239
142.690002 0.0003837207489198532
151.48735 0.00032202713027726197
174.985123 0.0006806636606281495
207.033096 0.0003699357279044757
211.927155 0.0005822476499363968
216.977341 0.0034167643482295174
233.201019 0.006078516315928276
234.951691 0.008163218264565288
234.987961 0.02741501704031983
235.216476 1.0
END IONS

BEGIN IONS
CHARGE=1+
PRECURSORTYPE=M+H
FORMULA=C15H26N2
ONTOLOGY=
INCHIKEY=SLRCCWJSBJZJBV-UHFFFAOYSA-N
INCHI=InChI=1S/C15H26N2/c1-3-7-16-11-13-9-12(14(16)5-1)10-17-8-4-2-6-15(13)17/h12-15H,1-11H2/t12-,13-,14-,15+/m0/s1
SMILES=C1CCN2CC3CC(CN4CCCCC34)C2C1
IONMODE=positive
INSTRUMENTTYPE=LC-ESI-Orbitrap
INSTRUMENT=Orbitrap
COMMENT=DB#=CCMSLIB00010113070; origin=GNPS
NUM_PEAKS=22
COMPOUND_NAME=lupinidine
PRECURSOR_MZ=235.217
COLLISION_ENERGY=102040
PARENT_MASS=234.20972354800926
57.522469 0.0006008269225687875
58.960892 0.003406907652854392
62.718948 0.0006489121200168441
66.747917 0.0006339152515058165
92.385063 0.000711042003848244
92.951263 0.0005867822361854441
98.097076 0.0007315139195934563
99.987259 0.005833781850789728
117.99733 0.004378133423092369
139.493515 0.0006417707540592119
146.797211 0.0006346293881015798
150.134018 0.0006577198046979238
188.968872 0.0007741240698073284
206.978851 0.0011749927455624147
207.031494 0.0008717227378949681
211.927109 0.002741332345603073
211.984604 0.0014718355238679923
229.995193 0.0009736062255571872
233.200882 0.0025601796958111367
234.951279 0.026371160117280273
235.216507 1.0
252.961868 0.0010426394298142982
END IONS

BEGIN IONS
CHARGE=1+
PRECURSORTYPE=M+H
FORMULA=C18H19NO5
ONTOLOGY=
INCHIKEY=MHHDPGHZHFJLBZ-UHFFFAOYSA-N
INCHI=InChI=1S/C18H19NO5/c20-11-16(17(21)23-12-14-7-3-1-4-8-14)19-18(22)24-13-15-9-5-2-6-10-15/h1-10,16,20H,11-13H2,(H,19,22)/t16-/m0/s1
SMILES=O=C(OCc1ccccc1)C(CO)N=C(O)OCc1ccccc1
IONMODE=positive
INSTRUMENTTYPE=LC-ESI-Orbitrap
INSTRUMENT=Orbitrap
COMMENT=DB#=CCMSLIB00010111168; origin=GNPS
NUM_PEAKS=34
COMPOUND_NAME=phenylmethyl (2S)-3-hydroxy-2-[(phenylmethoxy)carbonylamino]propanoate
PRECURSOR_MZ=330.134
COLLISION_ENERGY=102040
PARENT_MASS=329.12672354800924
60.04483 0.010635284270537943
65.038887 0.009319322066018713
72.044647 0.0008434199915707352
88.039436 0.004755773404781387
90.055138 0.0008824078086181829
90.878899 0.0007195473070275787
91.054367 1.0
91.279167 0.0010657492520754844
104.271942 0.0010620478770393342
106.049873 0.0144121673574255
107.049492 0.0007772887575915202
118.049797 0.0066607477567199695
118.633598 0.0007605091907609731
128.754883 0.0007735873825553701
132.029129 0.0010590867770104142
132.08107 0.0011911024866331009
148.075607 0.0012634026790058995
150.091217 0.013906312769151654
153.070053 0.0011703747864306605
165.069778 0.004008589164150554
166.077637 0.01813599740212824
178.086105 0.007928345327433505
179.085251 0.003948133371893436
181.101044 0.2022268459250822
194.081299 0.01901889872741791
199.436172 0.0008305885581120816
215.417618 0.0008014710744943675
226.266724 0.000757548090732053
240.137619 0.003958497221994656
248.941391 0.0007696392491834767
266.032745 0.0009554482759982115
268.132477 0.0029611000289200768
273.510864 0.0006566239314130271
286.143402 0.18089853593344238
END IONS

BEGIN IONS
CHARGE=1+
PRECURSORTYPE=M+H
FORMULA=C16H14N2O2S
ONTOLOGY=
INCHIKEY=SYPXMILWPQNCMS-UHFFFAOYSA-N
INCHI=InChI=1S/C16H14N2O2S/c1-20-15-7-6-11(9-19)8-12(15)10-21-16-17-13-4-2-3-5-14(13)18-16/h2-9H,10H2,1H3,(H,17,18)
SMILES=COc1ccc(C=O)cc1CSc1nc2ccccc2[nH]1
IONMODE=positive
INSTRUMENTTYPE=LC-ESI-Orbitrap
INSTRUMENT=Orbitrap
COMMENT=DB#=CCMSLIB00010104073; origin=GNPS
NUM_PEAKS=31
COMPOUND_NAME=3-(benzimidazol-2-ylthiomethyl)-4-methoxybenzaldehyde
PRECURSOR_MZ=299.085
COLLISION_ENERGY=102040
PARENT_MASS=298.0777235480092
53.039028 0.0025884084882260593
65.038803 0.004179649689938051
67.054543 0.003507959069729228
67.058327 0.0005541793238182758
82.385719 0.0007145476812453748
91.054314 0.0589902757921002
93.069946 0.06433792851876714
95.048889 0.0012169825350563847
106.041168 0.0038150684241616654
109.065063 0.005441464265802258
119.049088 0.033687427456524276
119.05896 0.0022645118057378296
121.06472 0.03265372304424172
121.074654 0.0010260019911746054
122.370499 0.0006594457456269504
124.051697 0.0009177730997090263
134.03627 0.004545415943577198
137.059723 0.016880744598973443
138.028946 0.0005776815830963851
147.043015 0.0006667531707806483
147.055222 0.011570221492006368
149.059601 1.0
149.533249 0.0006312035348977938
152.046402 0.007654429099509948
163.032578 0.0008300839978646519
178.352951 0.0005409469593507688
189.907043 0.0005893339637468763
272.148224 0.002663062723580054
294.909241 0.0005612892509948467
298.722382 0.0006509533326104907
299.084381 0.3050105434295089
END IONS

BEGIN IONS
CHARGE=1+
PRECURSORTYPE=M+H
FORMULA=C10H12O4
ONTOLOGY=
INCHIKEY=FBUBVLUPUDBFME-UHFFFAOYSA-N
INCHI=InChI=1S/C10H12O4/c1-6(11)10-8(12)4-7(13-2)5-9(10)14-3/h4-5,12H,1-3H3
SMILES=COc1cc(O)c(C(C)=O)c(OC)c1
IONMODE=positive
INSTRUMENTTYPE=LC-ESI-Orbitrap
INSTRUMENT=Orbitrap
COMMENT=DB#=CCMSLIB00010104595; origin=GNPS
NUM_PEAKS=55
COMPOUND_NAME=Xanthoxylin
PRECURSOR_MZ=197.081
COLLISION_ENERGY=102040
PARENT_MASS=196.07372354800924
55.018311 0.0007406980748951285
57.137829 0.0005771724546319964
63.019131 0.0005525153948818256
65.039177 0.0008274909252157295
67.054558 0.0006253030352643296
68.997467 0.0010827408077494969
73.935738 0.0006811266185387161
79.054581 0.0014299122090319007
81.033691 0.010151410127384288
81.070023 0.0008343949019457773
91.054359 0.01242360749748202
93.070007 0.006529781191279212
95.049423 0.0011677583497680857
95.08567 0.00099220008434687
103.054283 0.0033651955147033005
104.258537 0.0006880305952687639
105.033592 0.0009635978950366719
105.069893 0.0008937691018241885
108.057022 0.0024659032314950737
109.064583 0.005295152895468664
111.08007 0.001301695498331013
118.041733 0.0005986734107341452
119.049156 0.01431391632616911
119.943352 0.0008069762515035875
120.056793 0.0008823282261001093
120.95034 0.0006264865741323378
121.064636 0.00693376245822601
123.044563 0.0012632304851207467
123.080353 0.02610077991266272
125.059334 0.0007580566449592488
133.064667 0.020571286321328437
136.052032 0.006499206437189001
137.059799 0.013927885398720436
141.055771 0.0006870443128787571
147.044235 0.005080735103881179
148.051422 0.0012766439256248394
149.060181 0.0014204438980878352
151.075363 0.20981737600753678
153.545227 0.0006229359575283132
155.070175 0.0974003174251244
155.97261 0.0006120868512382381
161.059799 0.0029681182244865514
164.046661 0.009066696754854778
167.034775 0.0028635722911458275
167.070557 0.004882689599967808
173.521774 0.0009225685476123879
173.978775 0.00140525514928173
177.054886 0.0029493788590764214
178.452148 0.0009233575735243933
179.070251 0.6895285609627063
179.6922 0.0008955444101262008
182.057632 0.0030655629246192258
196.367691 0.0011719007358061142
197.080795 1.0
197.799408 0.0010632124164273618
END IONS

BEGIN IONS
CHARGE=1+
PRECURSORTYPE=M+H
FORMULA=C20H17N3O2S
ONTOLOGY=
INCHIKEY=PJDSKMDZRFBUMU-UHFFFAOYSA-N
INCHI=InChI=1S/C20H17N3O2S/c1-12-18(14-8-4-6-10-16(14)23(12)2)17(24)11-26-20-21-15-9-5-3-7-13(15)19(25)22-20/h3-10H,11H2,1-2H3,(H,21,22,25)
SMILES=Cc1c(C(=O)CSc2nc(O)c3ccccc3n2)c2ccccc2n1C
IONMODE=positive
INSTRUMENTTYPE=LC-ESI-Orbitrap
INSTRUMENT=Orbitrap
COMMENT=DB#=CCMSLIB00010109451; origin=GNPS
NUM_PEAKS=18
COMPOUND_NAME="1-(1,2-dimethylindol-3-yl)-2-(4-hydroxyquinazolin-2-ylthio)ethan-1-one "
PRECURSOR_MZ=364.111
COLLISION_ENERGY=102040
PARENT_MASS=363.1037235480092
77.03936 0.0019388013150130657
131.072937 0.0017928700332378888
132.044296 0.20642161088194158
133.159103 0.0013478249440974422
144.080612 0.007568938934556618
146.096313 0.45102509927405987
150.054657 0.03117083114663012
157.953918 0.0017783675456080575
158.096222 0.0890566041156247
172.07547 0.06281979118230624
186.091248 0.02043445827317067
190.068497 0.009374045441732178
191.027084 0.15270620951200037
219.022003 1.0
252.73877 0.0013822683522182915
346.099609 0.005634216444189442
364.110687 0.1481619456537404
364.21759 0.007375421365246057
END IONS

BEGIN IONS
CHARGE=1+
PRECURSORTYPE=M+H
FORMULA=C6H7N5
ONTOLOGY=
INCHIKEY=FSASIHFSFGAIJM-UHFFFAOYSA-N
INCHI=InChI=1S/C6H7N5/c1-11-3-10-5(7)4-6(11)9-2-8-4/h2-3H,7H2,1H3
SMILES=Cn1cnc(N)c2ncnc1-2
IONMODE=positive
INSTRUMENTTYPE=LC-ESI-Orbitrap
INSTRUMENT=Orbitrap
COMMENT=DB#=CCMSLIB00010103293; origin=GNPS
NUM_PEAKS=21
COMPOUND_NAME=3-methyladenine
PRECURSOR_MZ=150.077
COLLISION_ENERGY=102040
PARENT_MASS=149.06972354800925
55.029999 0.0005511527783808814
63.186001 0.0005133491166795573
73.055901 0.0005296648934381096
82.040199 0.0018856296833717678
82.427101 0.0006580013036382099
86.729797 0.0005434988924792342
92.4049 0.0005603881892985367
96.056198 0.00113247271195722
97.550201 0.0005106275033003612
98.633102 0.00043660170491372077
101.587997 0.0005412743298193549
108.042999 0.0007080261564522461
108.056 0.0009390504645598694
109.051003 0.005715596649061181
123.067001 0.008397585005878184
133.050995 0.014031602771146604
135.054001 0.0012053827531347647
143.130997 0.0005167520023733414
149.600006 0.0011476623038692085
150.076996 1.0
150.557007 0.000910058156519161
END IONS

BEGIN IONS
CHARGE=1+
PRECURSORTYPE=M+H
FORMULA=C6H7N5
ONTOLOGY=
INCHIKEY=FSASIHFSFGAIJM-UHFFFAOYSA-N
INCHI=InChI=1S/C6H7N5/c1-11-3-10-5(7)4-6(11)9-2-8-4/h2-3H,7H2,1H3
SMILES=Cn1cnc(N)c2ncnc1-2
IONMODE=positive
INSTRUMENTTYPE=LC-ESI-Orbitrap
INSTRUMENT=Orbitrap
COMMENT=DB#=CCMSLIB00010126909; origin=GNPS
NUM_PEAKS=21
COMPOUND_NAME=3-methyladenine
PRECURSOR_MZ=150.077
COLLISION_ENERGY=102040
PARENT_MASS=149.06972354800925
55.029999 0.0005511527783808814
63.186001 0.0005133491166795573
73.055901 0.0005296648934381096
82.040199 0.0018856296833717678
82.427101 0.0006580013036382099
86.729797 0.0005434988924792342
92.4049 0.0005603881892985367
96.056198 0.00113247271195722
97.550201 0.0005106275033003612
98.633102 0.00043660170491372077
101.587997 0.0005412743298193549
108.042999 0.0007080261564522461
108.056 0.0009390504645598694
109.051003 0.005715596649061181
123.067001 0.008397585005878184
133.050995 0.014031602771146604
135.054001 0.0012053827531347647
143.130997 0.0005167520023733414
149.600006 0.0011476623038692085
150.076996 1.0
150.557007 0.000910058156519161
END IONS

BEGIN IONS
CHARGE=1+
PRECURSORTYPE=M+H
FORMULA=C14H12FN5O2S
ONTOLOGY=
INCHIKEY=CIULIPSVONXXPV-UHFFFAOYSA-N
INCHI=InChI=1S/C14H12FN5O2S/c1-20-12-11(13(22)17-7-16-12)19-14(20)23-6-10(21)18-9-5-3-2-4-8(9)15/h2-5,7H,6H2,1H3,(H,18,21)(H,16,17,22)
SMILES=Cn1c(SCC(O)=Nc2ccccc2F)nc2c(O)ncnc21
IONMODE=positive
INSTRUMENTTYPE=LC-ESI-Orbitrap
INSTRUMENT=Orbitrap
COMMENT=DB#=CCMSLIB00010110122; origin=GNPS
NUM_PEAKS=23
COMPOUND_NAME=N-(2-fluorophenyl)-2-(9-methyl-6-oxohydropurin-8-ylthio)acetamide
PRECURSOR_MZ=334.077
COLLISION_ENERGY=102040
PARENT_MASS=333.0697235480092
82.407249 0.00041849357314909067
92.389992 0.0003576666162857807
97.239449 0.00036989365660120954
104.296654 0.00040482805750243487
109.04483 0.0005594641556093294
124.055649 0.007794378582253098
137.045807 0.0005850484668575797
149.044937 0.0006899544177992005
150.053772 0.001529202025332167
151.061676 0.003293492019081992
163.061478 0.0013187736340212568
168.021866 0.0006696102666861341
181.017532 0.05278649625117916
182.024826 0.0012782908282710133
183.032608 0.00047479960754283037
195.033279 0.2453014515140826
209.342026 0.0013038751395192637
210.058578 0.00039958789736725106
213.044312 0.002340193867430319
223.028046 1.0
236.059311 0.0016803446833489391
316.065796 0.00526913513828423
334.075958 0.08662467620177165
END IONS

BEGIN IONS
CHARGE=1+
PRECURSORTYPE=M+H
FORMULA=C14H19NO5
ONTOLOGY=
INCHIKEY=XWVOEFLBOSSYGM-UHFFFAOYSA-N
INCHI=InChI=1S/C14H19NO5/c1-17-11-8-10(9-12(18-2)13(11)19-3)14(16)15-4-6-20-7-5-15/h8-9H,4-7H2,1-3H3
SMILES=COc1cc(C(=O)N2CCOCC2)cc(OC)c1OC
IONMODE=positive
INSTRUMENTTYPE=LC-ESI-Orbitrap
INSTRUMENT=Orbitrap
COMMENT=DB#=CCMSLIB00010105683; origin=GNPS
NUM_PEAKS=35
COMPOUND_NAME=TRIMETOZINE
PRECURSOR_MZ=282.134
COLLISION_ENERGY=102040
PARENT_MASS=281.12672354800924
50.400459 0.00037181409295352323
58.150372 0.0005635932033983008
60.044731 0.0008788105947026487
61.9673 0.00042566216891554224
66.732697 0.0003969265367316342
69.033546 0.0006183158420789605
70.029099 0.10377448775612194
70.315269 0.0004049225387306347
72.044884 0.0007413793103448275
79.054367 0.0030918290854572714
81.033951 0.0005659670164917542
81.070107 0.0020792103948025988
90.018738 0.00040017491254372813
96.056808 0.00044715142428785606
107.049103 0.00045727136431784107
107.6548 0.000418415792103948
109.064636 0.0036515492253873065
111.080254 0.0006560469765117442
113.023163 0.0019129185407296351
114.054939 0.2481363068465767
122.036278 0.001064967516241879
124.05201 0.00263568215892054
128.046692 0.002660294852573713
136.190781 0.0004593953023488256
139.075302 0.010540979510244878
141.018433 0.0031819090454772614
143.070862 0.0008976761619190405
152.046738 0.010771489255372314
156.04126 0.00719240379810095
184.035736 0.0005171164417791104
185.080826 0.002034232883558221
194.362961 0.00045402298850574714
195.065033 1.0
267.110901 0.000629560219890055
282.133118 0.9982847326336831
END IONS

BEGIN IONS
CHARGE=1+
PRECURSORTYPE=M+H
FORMULA=C4H7N3O
ONTOLOGY=
INCHIKEY=DDRJAANPRJIHGJ-UHFFFAOYSA-N
INCHI=InChI=1S/C4H7N3O/c1-7-2-3(8)6-4(7)5/h2H2,1H3,(H2,5,6,8)
SMILES=CN1CC(O)=NC1=N
IONMODE=positive
INSTRUMENTTYPE=LC-ESI-Orbitrap
INSTRUMENT=Orbitrap
COMMENT=DB#=CCMSLIB00010103313; origin=GNPS
NUM_PEAKS=10
COMPOUND_NAME=creatinine
PRECURSOR_MZ=114.066
COLLISION_ENERGY=102040
PARENT_MASS=113.05872354800924
51.3241 0.002719344046081116
72.045097 0.018410503219232918
77.990799 0.0024602928761091112
86.0662 0.00469650461954853
86.071899 0.1120372651985372
87.177002 0.002895712755294917
92.407303 0.0024238703388307437
96.018898 0.0027323945382902236
104.082001 0.010390590624167233
114.067001 1.0
END IONS

BEGIN IONS
CHARGE=1+
PRECURSORTYPE=M+H
FORMULA=C4H7N3O
ONTOLOGY=
INCHIKEY=DDRJAANPRJIHGJ-UHFFFAOYSA-N
INCHI=InChI=1S/C4H7N3O/c1-7-2-3(8)6-4(7)5/h2H2,1H3,(H2,5,6,8)
SMILES=CN1CC(O)=NC1=N
IONMODE=positive
INSTRUMENTTYPE=LC-ESI-Orbitrap
INSTRUMENT=Orbitrap
COMMENT=DB#=CCMSLIB00010126929; origin=GNPS
NUM_PEAKS=10
COMPOUND_NAME=creatinine
PRECURSOR_MZ=114.066
COLLISION_ENERGY=102040
PARENT_MASS=113.05872354800924
51.3241 0.002719344046081116
72.045097 0.018410503219232918
77.990799 0.0024602928761091112
86.0662 0.00469650461954853
86.071899 0.1120372651985372
87.177002 0.002895712755294917
92.407303 0.0024238703388307437
96.018898 0.0027323945382902236
104.082001 0.010390590624167233
114.067001 1.0
END IONS

BEGIN IONS
CHARGE=1+
PRECURSORTYPE=M+H
FORMULA=C9H13N2O9P
ONTOLOGY=
INCHIKEY=DJJCXFVJDGTHFX-XVFCMESISA-N
INCHI=InChI=1S/C9H13N2O9P/c12-5-1-2-11(9(15)10-5)8-7(14)6(13)4(20-8)3-19-21(16,17)18/h1-2,4,6-8,13-14H,3H2,(H,10,12,15)(H2,16,17,18)/t4-,6-,7-,8-/m1/s1
SMILES=O=c1nc(O)ccn1[C@@H]1O[C@H](COP(=O)(O)O)[C@@H](O)[C@H]1O
IONMODE=positive
INSTRUMENTTYPE=LC-ESI-Orbitrap
INSTRUMENT=Orbitrap
COMMENT=DB#=CCMSLIB00010126925; origin=GNPS
NUM_PEAKS=17
COMPOUND_NAME=Uridine 5'-monophosphate
PRECURSOR_MZ=325.043
COLLISION_ENERGY=102040
PARENT_MASS=324.03572354800923
50.293499 0.00657588018282635
52.383701 0.005740209796416326
55.161598 0.007511809986643615
57.6222 0.006913489638683789
59.421501 0.005605258122242716
63.588501 0.006772091459430706
78.905197 0.0060748421489323565
82.400002 0.0067986016328324215
92.376999 0.007173303450110147
96.481796 0.007154309431573105
97.0289 1.0
113.035004 0.04595983720533562
131.964996 0.00689637519008274
161.701004 0.006381749631398489
209.820999 0.006435059357852803
213.014999 0.027067318627819442
227.065994 0.026349717324560134
END IONS

BEGIN IONS
CHARGE=1+
PRECURSORTYPE=M+H
FORMULA=C9H13NO3
ONTOLOGY=
INCHIKEY=UCTWMZQNUQWSLP-VIFPVBQESA-N
INCHI=InChI=1S/C9H13NO3/c1-10-5-9(13)6-2-3-7(11)8(12)4-6/h2-4,9-13H,5H2,1H3/t9-/m0/s1
SMILES=CNC[C@H](O)c1ccc(O)c(O)c1
IONMODE=positive
INSTRUMENTTYPE=LC-ESI-Orbitrap
INSTRUMENT=Orbitrap
COMMENT=DB#=CCMSLIB00010103037; origin=GNPS
NUM_PEAKS=25
COMPOUND_NAME=epinephrine
PRECURSOR_MZ=184.097
COLLISION_ENERGY=102040
PARENT_MASS=183.08972354800926
57.055099 0.004249471627222614
57.0578 0.02696191029811
58.0658 0.023665033355265885
68.452202 0.003079589307622166
75.2052 0.0035690615612177226
76.529099 0.00370242870280184
82.405403 0.0038106582749616613
101.949997 0.014028422311621835
107.049004 0.04824973221131927
109.028 0.005129678166058773
119.959999 0.003922633387387574
120.081001 0.024903323267501137
123.043999 0.004773479959174369
125.058998 0.0033819009113234136
127.414001 0.0032097234348447794
135.044006 0.07436585568035811
135.709 0.0032412078817300118
137.059998 0.014821517589733494
148.076004 0.02449558504890786
151.061996 0.02690797613617524
166.085999 1.0
173.774994 0.002952625709267626
184.100006 0.004411017598022962
184.181 0.004637485930700046
184.414001 0.0030727660794960003
END IONS

BEGIN IONS
CHARGE=1+
PRECURSORTYPE=M+H
FORMULA=C9H13NO3
ONTOLOGY=
INCHIKEY=UCTWMZQNUQWSLP-VIFPVBQESA-N
INCHI=InChI=1S/C9H13NO3/c1-10-5-9(13)6-2-3-7(11)8(12)4-6/h2-4,9-13H,5H2,1H3/t9-/m0/s1
SMILES=CNC[C@H](O)c1ccc(O)c(O)c1
IONMODE=positive
INSTRUMENTTYPE=LC-ESI-Orbitrap
INSTRUMENT=Orbitrap
COMMENT=DB#=CCMSLIB00010126652; origin=GNPS
NUM_PEAKS=25
COMPOUND_NAME=epinephrine
PRECURSOR_MZ=184.097
COLLISION_ENERGY=102040
PARENT_MASS=183.08972354800926
57.055099 0.004249471627222614
57.0578 0.02696191029811
58.0658 0.023665033355265885
68.452202 0.003079589307622166
75.2052 0.0035690615612177226
76.529099 0.00370242870280184
82.405403 0.0038106582749616613
101.949997 0.014028422311621835
107.049004 0.04824973221131927
109.028 0.005129678166058773
119.959999 0.003922633387387574
120.081001 0.024903323267501137
123.043999 0.004773479959174369
125.058998 0.0033819009113234136
127.414001 0.0032097234348447794
135.044006 0.07436585568035811
135.709 0.0032412078817300118
137.059998 0.014821517589733494
148.076004 0.02449558504890786
151.061996 0.02690797613617524
166.085999 1.0
173.774994 0.002952625709267626
184.100006 0.004411017598022962
184.181 0.004637485930700046
184.414001 0.0030727660794960003
END IONS

BEGIN IONS
CHARGE=1+
PRECURSORTYPE=M+H
FORMULA=C9H13N3O4
ONTOLOGY=
INCHIKEY=CKTSBUTUHBMZGZ-SHYZEUOFSA-N
INCHI=InChI=1S/C9H13N3O4/c10-7-1-2-12(9(15)11-7)8-3-5(14)6(4-13)16-8/h1-2,5-6,8,13-14H,3-4H2,(H2,10,11,15)/t5-,6+,8+/m0/s1
SMILES=N=c1ccn([C@H]2C[C@H](O)[C@@H](CO)O2)c(O)n1
IONMODE=positive
INSTRUMENTTYPE=LC-ESI-Orbitrap
INSTRUMENT=Orbitrap
COMMENT=DB#=CCMSLIB00010103328; origin=GNPS
NUM_PEAKS=14
COMPOUND_NAME=2'-deoxycytidine
PRECURSOR_MZ=228.098
COLLISION_ENERGY=102040
PARENT_MASS=227.09072354800927
76.382301 0.0021949316175518033
82.411797 0.00331814952338945
92.395103 0.0029320492796555274
95.024399 0.0032339315126802097
99.044098 0.004508281867824778
100.588997 0.001923770713126839
103.384003 0.002576553130972283
112.051003 1.0
117.055 0.022539496492970518
118.675003 0.003076525322665219
150.699997 0.002332930297403503
211.604004 0.00246119437758709
225.740005 0.0021892624789177253
228.231995 0.005273782814753583
END IONS

BEGIN IONS
CHARGE=1+
PRECURSORTYPE=M+H
FORMULA=C9H13N3O4
ONTOLOGY=
INCHIKEY=CKTSBUTUHBMZGZ-SHYZEUOFSA-N
INCHI=InChI=1S/C9H13N3O4/c10-7-1-2-12(9(15)11-7)8-3-5(14)6(4-13)16-8/h1-2,5-6,8,13-14H,3-4H2,(H2,10,11,15)/t5-,6+,8+/m0/s1
SMILES=N=c1ccn([C@H]2C[C@H](O)[C@@H](CO)O2)c(O)n1
IONMODE=positive
INSTRUMENTTYPE=LC-ESI-Orbitrap
INSTRUMENT=Orbitrap
COMMENT=DB#=CCMSLIB00010126944; origin=GNPS
NUM_PEAKS=14
COMPOUND_NAME=2'-deoxycytidine
PRECURSOR_MZ=228.098
COLLISION_ENERGY=102040
PARENT_MASS=227.09072354800927
76.382301 0.0021949316175518033
82.411797 0.00331814952338945
92.395103 0.0029320492796555274
95.024399 0.0032339315126802097
99.044098 0.004508281867824778
100.588997 0.001923770713126839
103.384003 0.002576553130972283
112.051003 1.0
117.055 0.022539496492970518
118.675003 0.003076525322665219
150.699997 0.002332930297403503
211.604004 0.00246119437758709
225.740005 0.0021892624789177253
228.231995 0.005273782814753583
END IONS

BEGIN IONS
CHARGE=1+
PRECURSORTYPE=M+H
FORMULA=C29H34N2O4
ONTOLOGY=
INCHIKEY=LIEPOPJIKJBLKK-UHFFFAOYSA-N
INCHI=InChI=1S/C29H34N2O4/c1-2-35-26-18-21(13-14-25(26)32)28-23-11-5-6-15-29(23,34)16-17-31(28)19-27(33)30-24-12-7-9-20-8-3-4-10-22(20)24/h3-4,7-10,12-14,18,23,28,32,34H,2,5-6,11,15-17,19H2,1H3,(H,30,33)
SMILES=CCOc1cc(C2C3CCCCC3(O)CCN2CC(O)=Nc2cccc3ccccc23)ccc1O
IONMODE=positive
INSTRUMENTTYPE=LC-ESI-Orbitrap
INSTRUMENT=Orbitrap
COMMENT=DB#=CCMSLIB00010107239; origin=GNPS
NUM_PEAKS=74
COMPOUND_NAME=2-[2-(3-ethoxy-4-hydroxyphenyl)-6-hydroxy-3-azabicyclo[4.4.0]dec-3-yl]-N-napht hylacetamide
PRECURSOR_MZ=475.259
COLLISION_ENERGY=102040
PARENT_MASS=474.25172354800924
56.049961 0.05654156508199456
67.054657 0.009773299109176816
79.054314 0.0007317998803910607
81.069931 0.0028097369091137914
84.04454 0.007056732295486762
91.054329 0.0014691606984147424
107.085381 0.002791590691575765
109.101196 0.007837995252715347
110.06015 0.000952286179509018
119.085541 0.005159086718432166
123.044029 0.010484221083368212
123.116562 0.0005095574957049074
127.360413 0.0004004850698580595
129.069702 0.0015960866608715843
131.049316 0.0034313912002552176
132.043732 0.0006279957112488012
134.096176 0.0005978495756614346
136.112213 0.00652444324770465
143.048798 0.0008392137809790567
143.084305 0.0004320946100855897
144.080688 0.10313578346294221
145.064575 0.000540484113767028
148.111679 0.0007641899030933448
149.059418 0.0027911028900290437
151.075287 0.059742811512506745
154.064804 0.0006458492478587951
156.080734 0.3138458566624423
157.06456 0.004973527010059444
161.059494 0.0015845745443689653
163.075119 0.000912676693915261
165.091492 0.001274137640035629
167.070618 0.0038520712541475328
168.08049 0.0006376541818738799
170.096329 0.06989669338843539
171.11618 0.006558686916284474
175.07486 0.0015774526417868366
177.091095 0.009395545591395962
178.086212 0.011053778169319819
182.096481 0.0007932628752779249
183.117737 0.0006523857885848584
184.075104 0.005216452180326573
185.093887 0.002934418984455716
189.090469 0.0020523762276745427
195.091431 0.003415683990450797
199.111618 0.014103708560039101
201.102234 0.07142292686781651
203.106064 0.005151964815850038
209.10701 0.002157838922075654
211.11116 0.002889346121538682
213.102036 0.26744549061616163
217.121735 0.0008993109315351017
227.117645 0.24874630124477198
229.121994 0.0008101408087944765
231.136841 0.002052571348293231
233.135452 0.00041082646264854777
240.137817 0.0017513051130382525
243.138168 0.0016378424732709142
244.133865 0.0008166773495205398
245.153259 0.02333281626369381
257.153625 0.015491113719223381
258.149048 0.002404959185644586
262.179871 0.0019055479621114782
272.165222 0.0009481886465165603
273.172729 0.0015969647036556823
276.158112 0.00047638699052786955
286.179565 0.0240252017791098
292.131012 0.000488094227649177
304.190002 0.010405977715274139
307.179779 0.016855982446949143
319.176727 0.000783897085580879
337.189758 0.0004376555477182107
349.154053 0.01592184248497815
457.247925 0.22971413853759048
475.258484 1.0
END IONS

BEGIN IONS
CHARGE=1+
PRECURSORTYPE=M+H
FORMULA=C21H13ClO3
ONTOLOGY=
INCHIKEY=WTBGPHMPZFMGIZ-UHFFFAOYSA-N
INCHI=InChI=1S/C21H13ClO3/c22-15-8-4-7-14(11-15)20-19(13-5-2-1-3-6-13)17-10-9-16(23)12-18(17)25-21(20)24/h1-12,23H
SMILES=O=c1oc2cc(O)ccc2c(-c2ccccc2)c1-c1cccc(Cl)c1
IONMODE=positive
INSTRUMENTTYPE=LC-ESI-Orbitrap
INSTRUMENT=Orbitrap
COMMENT=DB#=CCMSLIB00010109541; origin=GNPS
NUM_PEAKS=47
COMPOUND_NAME=3-(3-chlorophenyl)-7-hydroxy-4-phenylchromen-2-one
PRECURSOR_MZ=349.063
COLLISION_ENERGY=102040
PARENT_MASS=348.0557235480092
68.997292 0.0022379611976943636
75.424629 0.0005754706774671003
95.012901 0.0006795866031134557
97.763977 0.0004816246900647732
105.033524 0.0006073428996037398
118.647522 0.0005138510480029308
137.022919 0.005550901620897271
148.746201 0.0005242980541477182
153.266266 0.0005216420356363316
169.286942 0.00047401077033213155
181.064743 0.013375000951739966
185.617233 0.00046214722098127136
199.030792 0.003564199774380081
200.997299 0.0005906985169323836
203.373688 0.0006032703378862803
215.025131 0.004229620945432808
216.093048 0.000970863299862188
229.101746 0.0009945903985639085
239.087387 0.0007084486709371903
240.092804 0.0025403931721909197
241.101822 0.002049560951286673
242.106766 0.0008123875286827866
243.019394 0.0006627651525413405
251.061676 0.002630343665776546
251.087997 0.0007220828992956416
252.093216 0.0036456510087292705
253.099991 0.001069135984783493
255.080566 0.0007011888870060668
257.094879 0.005906453965621559
258.103394 0.0042629097107755205
268.088745 0.00593195174333087
269.095551 0.009691457412248247
270.103271 0.01946702207735707
275.061462 0.004592610141988979
285.091644 0.002261688296396084
286.098358 0.06379685637190351
287.067841 0.0009627181764272691
293.072296 0.055183388339476704
303.055878 0.0011969790091315687
307.053406 0.000813095800285823
313.084869 0.013102847588273217
314.093231 0.001013536663945133
321.065308 0.005054049091367214
347.379913 0.001159617682071397
348.050995 0.0031562353310310965
349.062042 1.0
350.756653 0.0009988400281821272
END IONS

BEGIN IONS
CHARGE=1+
PRECURSORTYPE=M+H
FORMULA=C20H21N3O2S
ONTOLOGY=
INCHIKEY=BAZGEONHJRHCHX-UHFFFAOYSA-N
INCHI=InChI=1S/C20H21N3O2S/c1-14(11-12-15-7-3-2-4-8-15)21-18(24)13-26-20-22-17-10-6-5-9-16(17)19(25)23-20/h2-10,14H,11-13H2,1H3,(H,21,24)(H,22,23,25)
SMILES=CC(CCc1ccccc1)N=C(O)CSc1nc(O)c2ccccc2n1
IONMODE=positive
INSTRUMENTTYPE=LC-ESI-Orbitrap
INSTRUMENT=Orbitrap
COMMENT=DB#=CCMSLIB00010109800; origin=GNPS
NUM_PEAKS=28
COMPOUND_NAME=2-(4-hydroxyquinazolin-2-ylthio)-N-(1-methyl-3-phenylpropyl)acetamide
PRECURSOR_MZ=368.143
COLLISION_ENERGY=102040
PARENT_MASS=367.1357235480092
65.039047 0.0005850667120004826
75.759323 0.000489326445518076
86.654778 0.0003955284040120427
90.034714 0.0004507104430466518
91.054314 0.09681214617230871
92.363564 0.000472874657482913
113.835098 0.00043288767267522527
131.04892 0.0017813630489184778
132.044357 0.14653070634837942
133.101212 0.021831865468245306
135.043991 0.0010296077345339483
136.074936 0.0009539752089834074
145.039703 0.0005683864269092757
145.101364 0.0024212690543695035
148.075699 0.0004508246915746737
150.055069 0.022775558309706737
150.12767 0.6254664767399137
157.57988 0.0005273712053493903
162.001617 0.0006074594234927877
177.065781 0.0005113764114263152
191.027176 0.14553423068697183
193.042175 0.006360101306454768
218.037415 0.0017161271394179358
219.022064 1.0
219.869949 0.000723764425019148
336.539581 0.0008602914160053962
350.130463 0.0006541870714537714
368.142151 0.3624160958810207
END IONS

BEGIN IONS
CHARGE=1+
PRECURSORTYPE=M+H
FORMULA=C15H10O6
ONTOLOGY=
INCHIKEY=IQPNAANSBPBGFQ-UHFFFAOYSA-N
INCHI=InChI=1S/C15H10O6/c16-8-4-11(19)15-12(20)6-13(21-14(15)5-8)7-1-2-9(17)10(18)3-7/h1-6,16-19H
SMILES=O=c1cc(-c2ccc(O)c(O)c2)oc2cc(O)cc(O)c12
IONMODE=positive
INSTRUMENTTYPE=LC-ESI-Orbitrap
INSTRUMENT=Orbitrap
COMMENT=DB#=CCMSLIB00010106598; origin=GNPS
NUM_PEAKS=20
COMPOUND_NAME=luteolin
PRECURSOR_MZ=287.055
COLLISION_ENERGY=102040
PARENT_MASS=286.04772354800923
62.650558 0.0001555468811320677
67.018219 0.0003116673832148376
89.554268 0.00016042265921303604
135.044327 0.001734247340956182
137.022903 0.0004009132427949145
138.256485 0.00019288004467359963
153.017914 0.007051809157456943
161.02356 0.00039316935996043544
171.028519 0.00042046415686467967
179.034973 0.0003042581126016014
241.047821 0.0006462796044577613
259.056854 0.0002087502243096926
263.055084 0.0003689816765391612
263.902618 0.00040798790118690777
269.04303 0.0009093804138464831
270.050079 0.0007327051610302194
285.8013 0.0012400250901803836
286.046967 0.0007295980475472494
287.054565 1.0
288.315765 0.0010597169046763397
END IONS

BEGIN IONS
CHARGE=1+
PRECURSORTYPE=M+H
FORMULA=C15H10O6
ONTOLOGY=
INCHIKEY=IQPNAANSBPBGFQ-UHFFFAOYSA-N
INCHI=InChI=1S/C15H10O6/c16-8-4-11(19)15-12(20)6-13(21-14(15)5-8)7-1-2-9(17)10(18)3-7/h1-6,16-19H
SMILES=O=c1cc(-c2ccc(O)c(O)c2)oc2cc(O)cc(O)c12
IONMODE=positive
INSTRUMENTTYPE=LC-ESI-Orbitrap
INSTRUMENT=Orbitrap
COMMENT=DB#=CCMSLIB00010106601; origin=GNPS
NUM_PEAKS=17
COMPOUND_NAME=luteolin
PRECURSOR_MZ=287.055
COLLISION_ENERGY=102040
PARENT_MASS=286.04772354800923
51.74033 0.00025921010519716755
69.931519 0.0003055784908970786
70.232437 0.0002856922617858641
74.958794 0.00032546472000829314
89.632347 0.0003159153921677594
94.626701 0.0002491685439627919
137.021866 0.0003058738309333838
153.017563 0.0023254089991881105
228.062576 0.0016982052087547057
255.376923 0.0004925287338782489
263.903961 0.00038797836102622
270.051697 0.000483963872825399
285.795929 0.0006159808690538083
287.054657 1.0
288.321625 0.0006947382120685193
433.506439 0.00033048550062548095
471.29068 0.00037862592654322306
END IONS

BEGIN IONS
CHARGE=1+
PRECURSORTYPE=M+H
FORMULA=C13H15ClN2O
ONTOLOGY=
INCHIKEY=ORWWIGSFLHONFB-UHFFFAOYSA-N
INCHI=InChI=1S/C13H15ClN2O/c1-2-13(17)15-6-5-9-8-16-12-4-3-10(14)7-11(9)12/h3-4,7-8,16H,2,5-6H2,1H3,(H,15,17)
SMILES=CCC(O)=NCCc1c[nH]c2ccc(Cl)cc12
IONMODE=positive
INSTRUMENTTYPE=LC-ESI-Orbitrap
INSTRUMENT=Orbitrap
COMMENT=DB#=CCMSLIB00010104725; origin=GNPS
NUM_PEAKS=23
COMPOUND_NAME=N-[2-(5-chloroindol-3-yl)ethyl]propanamide
PRECURSOR_MZ=251.095
COLLISION_ENERGY=102040
PARENT_MASS=250.08772354800925
57.033878 0.005039306837537843
74.060303 0.016122145938293454
98.983994 0.0017934147395383575
100.075546 0.005655246236698456
134.697922 0.0004080937693117013
136.233551 0.00042559513109401826
143.072662 0.03936992384194235
152.026627 0.0009605398559597224
166.041153 0.0024472059211584
177.427872 0.0008161875386234026
178.041473 1.0
178.659103 0.001241104322361517
181.089218 0.00042898686787353705
186.946777 0.0005542097897733709
195.067932 0.11369264488312414
198.092087 0.0004463525601846733
204.957138 0.001761939422224423
206.074448 0.0005581442044376128
216.057343 0.0017984345099720453
222.066772 0.0017687228957834608
227.951355 0.00047592850490207715
234.06749 0.045640973808330244
251.093948 0.144867318648922
END IONS

BEGIN IONS
CHARGE=1+
PRECURSORTYPE=M+H
FORMULA=C18H17NO3
ONTOLOGY=
INCHIKEY=CLBYJZSPPMBDDF-UHFFFAOYSA-N
INCHI=InChI=1S/C18H17NO3/c1-13(20)19-16-8-6-15(7-9-16)18(21)12-5-14-3-10-17(22-2)11-4-14/h3-12H,1-2H3,(H,19,20)/b12-5+
SMILES=COc1ccc(C=CC(=O)c2ccc(N=C(C)O)cc2)cc1
IONMODE=positive
INSTRUMENTTYPE=LC-ESI-Orbitrap
INSTRUMENT=Orbitrap
COMMENT=DB#=CCMSLIB00010106555; origin=GNPS
NUM_PEAKS=40
COMPOUND_NAME=N-{4-[(2E)-3-(4-methoxyphenyl)prop-2-enoyl]phenyl}acetamide
PRECURSOR_MZ=296.128
COLLISION_ENERGY=102040
PARENT_MASS=295.1207235480092
65.039238 0.00030713042292352115
65.815742 0.0002670575561859493
66.761551 0.0002754348755972947
73.973763 0.0003809891001802474
79.054413 0.0005488445545601963
92.40284 0.0002853900590531072
95.834587 0.0002402745340290944
99.060066 0.00029032698418192924
103.054047 0.00035584087530657734
104.314087 0.00025583357483870974
105.069633 0.0004263730247582159
109.064682 0.001168627924562873
118.041283 0.0013191594077329523
118.064919 0.0005439970959493595
120.044319 0.08024590344200794
121.013702 0.0003575244725086633
121.028328 0.029820654442048403
133.064682 0.03323337917055494
134.743454 0.00025150664869615075
136.076004 0.0006327966817096212
137.059479 0.0044430292829444025
146.059906 0.08916175435838582
147.043823 0.014868383690728758
154.971008 0.0002744507438994571
160.075516 0.0012297091563873432
161.059586 0.2615231411167426
162.054749 0.07596390575811715
188.070389 0.1999797252603606
226.121964 0.0011819340357832238
236.106598 0.01705877618392182
237.091003 0.0037014738486439934
239.092499 0.00037047271765707293
253.110474 0.0014176945773139717
254.117188 0.030781467911971193
255.101212 0.01008729296959739
278.117279 0.009371438825918196
281.105316 0.0015326021196862907
294.810425 0.000526664991419673
296.127655 1.0
297.451691 0.0005985798052401744
END IONS

BEGIN IONS
CHARGE=1+
PRECURSORTYPE=M+H
FORMULA=C5H11NO2Se
ONTOLOGY=
INCHIKEY=RJFAYQIBOAGBLC-BYPYZUCNSA-N
INCHI=InChI=1S/C5H11NO2Se/c1-9-3-2-4(6)5(7)8/h4H,2-3,6H2,1H3,(H,7,8)/t4-/m0/s1
SMILES=C[Se]CC[C@H](N)C(=O)O
IONMODE=positive
INSTRUMENTTYPE=LC-ESI-Orbitrap
INSTRUMENT=Orbitrap
COMMENT=DB#=CCMSLIB00010103063; origin=GNPS
NUM_PEAKS=28
COMPOUND_NAME=L-selenomethionine
PRECURSOR_MZ=198.003
COLLISION_ENERGY=102040
PARENT_MASS=196.99572354800924
56.050201 0.39531981231934826
60.4193 0.0026097557571980136
63.029499 0.002604008501587764
74.024399 0.022237488209299716
74.0606 0.04409706741399234
79.758499 0.002809902065154424
84.0448 0.0065485320720696134
85.028801 0.020042219047705704
87.297699 0.002543682459380848
91.341202 0.002989863670539779
96.940102 0.010654834784309801
102.055 0.19957295675883885
108.955002 0.24717099017618566
109.372002 0.0029233961449338657
112.791 0.0026768150688940852
122.970001 0.005935916217027742
123.950996 0.05491387860203998
134.970993 0.10083725345683618
149.281006 0.0032912356047302316
151.996994 0.5136362671325321
152.944 0.005826471340030148
152.981003 0.024846758808525094
162.966003 0.004526279174817794
169.940994 0.0047200411242944535
169.955994 0.16877761905195188
180.975998 1.0
197.985992 0.05161142098031901
198.003006 0.11366690020593917
END IONS

BEGIN IONS
CHARGE=1+
PRECURSORTYPE=M+H
FORMULA=C11H12N2
ONTOLOGY=
INCHIKEY=CFTOTSJVQRFXOF-UHFFFAOYSA-N
INCHI=InChI=1S/C11H12N2/c1-2-4-10-8(3-1)9-5-6-12-7-11(9)13-10/h1-4,12-13H,5-7H2
SMILES=c1ccc2c3c([nH]c2c1)CNCC3
IONMODE=positive
INSTRUMENTTYPE=LC-ESI-Orbitrap
INSTRUMENT=Orbitrap
COMMENT=DB#=CCMSLIB00010108843; origin=GNPS
NUM_PEAKS=21
COMPOUND_NAME=Tryptoline
PRECURSOR_MZ=173.107
COLLISION_ENERGY=102040
PARENT_MASS=172.09972354800925
77.038902 0.00045865890515343595
82.401917 0.00025554482707876357
90.903221 0.0013195806156912015
99.00341 0.00024915620640179447
101.028954 0.00023498374903794348
115.054718 0.0002341025599790512
122.019096 0.0037311013401930965
130.064941 0.0026861579811899914
131.929413 0.0017125175035355876
132.003876 0.001263404813186818
143.072342 0.0018292016214172414
143.634705 0.0015566939049548013
144.080597 1.0
144.528503 0.0013374246941337702
146.095917 0.0014373662198964706
148.976685 0.00038742945622630934
149.939926 0.004630134477527953
149.977783 0.0011135292407535547
150.013947 0.009105253113112438
156.080673 0.006896479304577344
173.107071 0.0708998842191009
END IONS

BEGIN IONS
CHARGE=1+
PRECURSORTYPE=M+H
FORMULA=C23H25N3O3
ONTOLOGY=
INCHIKEY=FSJCNGLCLCELJX-UHFFFAOYSA-N
INCHI=InChI=1S/C23H25N3O3/c1-4-11-24-23(29)18-13-22(28)26(20-8-6-5-7-17(18)20)14-21(27)25-19-12-15(2)9-10-16(19)3/h5-10,12-13H,4,11,14H2,1-3H3,(H,24,29)(H,25,27)
SMILES=CCCN=C(O)c1cc(=O)n(CC(O)=Nc2cc(C)ccc2C)c2ccccc12
IONMODE=positive
INSTRUMENTTYPE=LC-ESI-Orbitrap
INSTRUMENT=Orbitrap
COMMENT=DB#=CCMSLIB00010113714; origin=GNPS
NUM_PEAKS=21
COMPOUND_NAME="N-(2,5-dimethylphenyl)-2-[2-oxo-4-(N-propylcarbamoyl)hydroquinolyl]acetamide "
PRECURSOR_MZ=392.197
COLLISION_ENERGY=102040
PARENT_MASS=391.1897235480092
66.742401 0.00309386465065019
73.953987 0.003847869047897073
76.792374 0.0025734014383912793
92.375618 0.0032996033136157847
104.284897 0.003448624831655729
130.064972 0.028077210939958786
136.204849 0.0027935974128085106
144.044861 0.003623224669956261
146.059906 0.029836554533534846
152.537857 0.0029459552334911406
158.05983 0.04855098815723772
163.838165 0.0027279834608356993
185.40036 0.0030916404488883996
186.054123 0.003945733925415842
201.066574 0.004244889062376626
215.117447 0.004579631427526053
231.112396 0.06022026270047009
243.112427 0.3043775626974674
271.107117 1.0
284.139008 0.014088093959179225
392.213318 0.006007568958595372
END IONS

BEGIN IONS
CHARGE=1+
PRECURSORTYPE=M+H
FORMULA=C17H20N2O
ONTOLOGY=
INCHIKEY=VMQLWVGHPWFHEI-UHFFFAOYSA-N
INCHI=InChI=1S/C17H20N2O/c20-17(18-13-11-15-7-3-1-4-8-15)19-14-12-16-9-5-2-6-10-16/h1-10H,11-14H2,(H2,18,19,20)
SMILES=OC(=NCCc1ccccc1)NCCc1ccccc1
IONMODE=positive
INSTRUMENTTYPE=LC-ESI-Orbitrap
INSTRUMENT=Orbitrap
COMMENT=DB#=CCMSLIB00010103798; origin=GNPS
NUM_PEAKS=26
COMPOUND_NAME=Untitled
PRECURSOR_MZ=269.165
COLLISION_ENERGY=102040
PARENT_MASS=268.15772354800924
51.023602 0.000661061119423521
57.726559 0.0003599098515636979
65.935127 0.0004426912816437427
77.039001 0.0019902170745518736
79.054543 0.0040741448921747525
88.03093 0.00041152650796654936
88.086197 0.0004116347189862618
95.085373 0.0005093492697866285
103.054031 0.00457299769304927
104.273582 0.0005611823482289048
104.791512 0.0006243775837409913
105.069847 1.0
105.349541 0.0007558539726916507
121.747887 0.00046065431091601387
122.096352 0.5458524176992974
122.446747 0.0007002335085594376
130.065323 0.001415400137839197
136.193863 0.000373760862086895
146.096237 0.004059644615533281
148.075653 0.008181185934342097
165.68837 0.000390100726063479
206.44516 0.0004604378888765889
215.081131 0.00038815292770865437
251.199677 0.00044236664858460527
268.024323 0.0006612775414629459
269.164459 0.7948039881820581
END IONS

BEGIN IONS
CHARGE=1+
PRECURSORTYPE=M+H
FORMULA=C17H14O4
ONTOLOGY=
INCHIKEY=PJJFYUAXYSKODT-UHFFFAOYSA-N
INCHI=InChI=1S/C17H14O4/c1-19-11-7-8-16-13(9-11)14(18)10-17(21-16)12-5-3-4-6-15(12)20-2/h3-10H,1-2H3
SMILES=COc1ccc2oc(-c3ccccc3OC)cc(=O)c2c1
IONMODE=positive
INSTRUMENTTYPE=LC-ESI-Orbitrap
INSTRUMENT=Orbitrap
COMMENT=DB#=CCMSLIB00010103444; origin=GNPS
NUM_PEAKS=27
COMPOUND_NAME="6,2'-dimethoxyflavone "
PRECURSOR_MZ=283.096
COLLISION_ENERGY=102040
PARENT_MASS=282.0887235480092
50.060169 0.00017066667337886662
66.740532 0.00017313880059399375
67.727852 0.00017408270371249682
70.071938 0.000218760784654976
76.80632 0.0001960621620433543
78.523399 0.0001837015259677187
104.283913 0.00017012730016829344
105.069862 0.0006695868931590667
121.029388 0.00019961303567962778
121.065117 0.0007254120204533917
122.036133 0.00028451936857735733
150.031387 0.003948391692465936
151.039124 0.00883129242001747
168.041779 0.03607278589769187
224.081543 0.00020927680570239743
227.517075 0.00020662488741707923
239.069687 0.0003646162903474759
240.077759 0.007645839998712696
251.069946 0.00528837453859993
255.100357 0.001883446303554029
259.963715 0.0007230297887733601
267.065155 0.008631769279872938
268.072876 0.11973357120890527
270.052856 0.0008674020181367838
281.082275 0.00027355211329570245
282.089417 0.00036744799970298513
283.096344 1.0
END IONS

BEGIN IONS
CHARGE=1+
PRECURSORTYPE=M+H
FORMULA=C18H27NO3
ONTOLOGY=
INCHIKEY=YKPUWZUDDOIDPM-UHFFFAOYSA-N
INCHI=InChI=1S/C18H27NO3/c1-14(2)8-6-4-5-7-9-18(21)19-13-15-10-11-16(20)17(12-15)22-3/h6,8,10-12,14,20H,4-5,7,9,13H2,1-3H3,(H,19,21)/b8-6+
SMILES=COc1cc(CN=C(O)CCCCC=CC(C)C)ccc1O
IONMODE=positive
INSTRUMENTTYPE=LC-ESI-Orbitrap
INSTRUMENT=Orbitrap
COMMENT=DB#=CCMSLIB00010104711; origin=GNPS
NUM_PEAKS=44
COMPOUND_NAME=Capsaicin
PRECURSOR_MZ=306.206
COLLISION_ENERGY=102040
PARENT_MASS=305.19872354800924
51.02364 0.0004723199625325231
51.208241 0.00029061595449557257
54.124691 0.0003933422325954899
57.07032 0.000381523187695822
58.029202 0.000537821772116664
67.054688 0.000784917131374207
69.070213 0.005940671708354574
73.663857 0.0003373398422765027
74.060677 0.0004596172507244688
79.054451 0.0007632672921187405
81.069832 0.003520418504647812
82.394203 0.0003419790935455312
83.085869 0.0006583318467478572
84.080818 0.001780920195489212
86.059891 0.0005508558590153631
91.054352 0.0007940851755487157
93.069847 0.0023672331892035784
94.041237 0.0006568958880217294
95.085426 0.0019865936684161432
97.064713 0.00226782066201011
98.096626 0.0004874527583386399
100.075653 0.0022246314418627256
105.069794 0.0005827783260808212
107.085411 0.003946787787944243
109.064827 0.000494522093605731
109.100891 0.006382726079274863
111.115967 0.0005835515346256594
112.075577 0.0006730228090997809
114.091293 0.006545873082235699
122.035881 0.0051997170056725895
123.116676 0.0016407485321464214
126.091118 0.00496598710840439
133.101013 0.010149135359544734
135.11673 0.011767681760617947
137.059631 1.0
147.116821 0.0025778772884901833
151.11171 0.007531934893631357
153.127182 0.015904016100411072
165.127182 0.0015938037276383946
170.153793 0.04822347052446183
182.153748 0.07241385214153914
289.179688 0.0005866443688050117
300.328613 0.0004060449444035442
306.20578 0.08411095100784972
END IONS

BEGIN IONS
CHARGE=1+
PRECURSORTYPE=M+H
FORMULA=C18H27NO3
ONTOLOGY=
INCHIKEY=YKPUWZUDDOIDPM-UHFFFAOYSA-N
INCHI=InChI=1S/C18H27NO3/c1-14(2)8-6-4-5-7-9-18(21)19-13-15-10-11-16(20)17(12-15)22-3/h6,8,10-12,14,20H,4-5,7,9,13H2,1-3H3,(H,19,21)/b8-6+
SMILES=COc1cc(CN=C(O)CCCCC=CC(C)C)ccc1O
IONMODE=positive
INSTRUMENTTYPE=LC-ESI-Orbitrap
INSTRUMENT=Orbitrap
COMMENT=DB#=CCMSLIB00010104712; origin=GNPS
NUM_PEAKS=46
COMPOUND_NAME=Capsaicin
PRECURSOR_MZ=306.206
COLLISION_ENERGY=102040
PARENT_MASS=305.19872354800924
55.2897 0.0006281299102480636
57.070381 0.0006202544212517922
58.02911 0.0009846747757156194
61.58065 0.0006629729827770215
67.054604 0.0008228692745194997
68.778702 0.0006515177260551724
69.070236 0.006802513283324774
79.894791 0.0006636889363221371
81.07 0.003098169640896794
82.399017 0.0009646280764523834
84.081139 0.0006682233087745357
85.410568 0.0006550974937807502
90.011917 0.0006138108393457521
91.054176 0.0008126072737061765
92.073463 0.0007923219232612352
93.069931 0.0014376347185920725
94.041519 0.0008939873266676468
95.085114 0.0011827552565309282
97.064583 0.0015404933779070101
100.075668 0.0014934790951110874
104.285103 0.0008426773226010306
107.085533 0.0037026730841560433
109.093903 0.0007142829868436376
109.100983 0.006159825650992694
111.079781 0.0008524620210509434
111.116737 0.001036700733327351
114.091293 0.004412899000910693
121.101097 0.0010460081294138535
122.036049 0.005178014689457536
123.116463 0.001201131397522228
126.091179 0.004768489261651428
133.101181 0.010056760797056762
135.116425 0.011650234737302326
135.623886 0.0006338575386089882
137.059616 1.0
147.116196 0.002483165545642516
151.111877 0.006528780377908919
152.069931 0.0009075904440248426
153.127258 0.017126563403891352
165.127167 0.0012901482882982642
170.153748 0.04875285665464501
182.153671 0.07617745720029707
212.020752 0.0009252506314710268
231.684616 0.0007851623878100795
288.120941 0.0006531882843271087
306.205658 0.07615239882621803
END IONS

BEGIN IONS
CHARGE=1+
PRECURSORTYPE=M+H
FORMULA=C21H24ClNO5
ONTOLOGY=
INCHIKEY=XPGFHNDBGHFQQE-UHFFFAOYSA-N
INCHI=InChI=1S/C21H24ClNO5/c1-10(2)28-21(26)17-11(3)23-14-6-5-7-15(24)19(14)18(17)12-8-13(22)20(25)16(9-12)27-4/h8-10,18,23,25H,5-7H2,1-4H3
SMILES=COc1cc(C2C(C(=O)OC(C)C)=C(C)NC3=C2C(=O)CCC3)cc(Cl)c1O
IONMODE=positive
INSTRUMENTTYPE=LC-ESI-Orbitrap
INSTRUMENT=Orbitrap
COMMENT=DB#=CCMSLIB00010106324; origin=GNPS
NUM_PEAKS=15
COMPOUND_NAME="methylethyl 4-(3-chloro-4-hydroxy-5-methoxyphenyl)-2-methyl-5-oxo-1,4,6,7,8-pe ntahydroquinoline-3-carboxylate "
PRECURSOR_MZ=406.142
COLLISION_ENERGY=102040
PARENT_MASS=405.1347235480092
61.837791 0.0011691364915812543
63.899151 0.0010308432459543448
82.395317 0.0012658261981337731
82.400421 0.0014992682784956315
92.376068 0.0018559801042630916
118.651917 0.0014326255723857279
161.083984 0.0017142198970466495
188.069931 0.002409538304725122
206.080841 0.8210157966326558
248.127548 1.0
329.575378 0.0010978711700186407
331.059052 0.001677238973424969
346.082977 0.03464650281806195
358.626038 0.0012057321972485423
406.140167 0.023284499253254997
END IONS

BEGIN IONS
CHARGE=1+
PRECURSORTYPE=M+H
FORMULA=C22H25N3O6
ONTOLOGY=
INCHIKEY=SRNHKDNMPLHNHG-UHFFFAOYSA-N
INCHI=InChI=1S/C22H25N3O6/c1-22(2)8-11-16(12(26)9-22)15(17-19(23-11)24-21(28)25-20(17)27)10-6-13(29-3)18(31-5)14(7-10)30-4/h6-7,15H,8-9H2,1-5H3,(H3,23,24,25,27,28)
SMILES=COc1cc(C2C3=C(CC(C)(C)CC3=O)Nc3nc(O)nc(O)c32)cc(OC)c1OC
IONMODE=positive
INSTRUMENTTYPE=LC-ESI-Orbitrap
INSTRUMENT=Orbitrap
COMMENT=DB#=CCMSLIB00010110710; origin=GNPS
NUM_PEAKS=24
COMPOUND_NAME="8,8-dimethyl-5-(3,4,5-trimethoxyphenyl)-1,3,5,7,8,9,10-heptahydropyrimidino[4, 5-b]quinoline-2,4,6-trione "
PRECURSOR_MZ=428.182
COLLISION_ENERGY=102040
PARENT_MASS=427.17472354800924
57.576801 0.0006483097194190339
104.282227 0.0009113259036655873
153.054977 0.0013918039649509955
154.058228 0.000768908753763625
154.843719 0.0007981594141811996
157.966446 0.0007583593352523685
168.078827 0.005931890076977189
169.08316 0.006695284361973566
185.3918 0.0008425149238308007
199.086929 0.0011309456163090174
204.040878 0.0011733830498656627
217.097198 0.027544052213867402
219.663422 0.0007878497551815627
235.107895 0.0033702994548348224
242.092392 0.006369211426171094
243.075851 0.0013021339076053156
259.019928 0.0008830342812944904
260.102997 1.0
261.105988 0.005229634467443775
301.1297 0.006676822879578867
397.15976 0.009870419574350144
410.172272 0.0007552424616013154
413.153534 0.0012793567540014665
428.176758 0.025569872395192726
END IONS

BEGIN IONS
CHARGE=1+
PRECURSORTYPE=M+H
FORMULA=C25H36O5
ONTOLOGY=
INCHIKEY=BYOXXAISBYDIEU-UHFFFAOYSA-N
INCHI=InChI=1S/C25H36O5/c1-14(28-15(2)26)25-22(30-25)13-21-19-7-6-17-12-18(29-16(3)27)8-10-23(17,4)20(19)9-11-24(21,25)5/h6,14,18-22H,7-13H2,1-5H3/t14-,18?,19?,20?,21?,22?,23?,24?,25?/m0/s1
SMILES=CC(=O)OC1CCC2(C)C(=CCC3C2CCC2(C)C3CC3OC32C(C)OC(C)=O)C1
IONMODE=positive
INSTRUMENTTYPE=LC-ESI-Orbitrap
INSTRUMENT=Orbitrap
COMMENT=DB#=CCMSLIB00010113964; origin=GNPS
NUM_PEAKS=99
COMPOUND_NAME="1-((6R)-14-acetyloxy-7,11-dimethyl-5-oxapentacyclo[8.8.0.0<2,7>.0<4,6>.0<11,16 >]octadec-16-en-6-yl)(1S)ethyl acetate "
PRECURSOR_MZ=417.264
COLLISION_ENERGY=102040
PARENT_MASS=416.25672354800923
60.300499 0.0036811468235265314
62.59293 0.0036248339688932686
67.054688 0.027069344383710895
69.070053 0.00889743103205548
70.003113 0.00393577886186824
71.520561 0.0033530632356631755
79.054192 0.01901293359367827
81.070129 0.1719623193550954
82.394821 0.004945737667790884
83.085541 0.007034210059189707
85.064903 0.0051232455791348636
91.054459 0.04217343135034553
91.059776 0.005399913082333066
92.374451 0.00410839000324411
93.070007 0.05477649305576809
95.085632 0.06094764740807845
97.100906 0.005316667992875199
105.06987 0.06878370354954613
107.085579 0.0895766130266323
109.094551 0.0033738745080276423
109.101196 0.060445728486347196
109.121452 0.004039835223690573
111.08007 0.007649978882679513
117.069794 0.04555097843584925
119.085411 0.1451072086574893
121.101341 0.0646569506589216
123.116692 0.01563905908565063
129.069611 0.008527724899463192
131.085388 0.07699558678606624
133.089859 0.00685058118538559
133.101028 0.1709768443990133
135.080246 0.006085460877868436
135.116776 0.0545720529095995
137.095474 0.017518194560912758
137.132462 0.00815924295936293
141.069824 0.006209104319563208
143.085449 0.060497144571012344
145.101059 0.14251681734435923
147.116699 0.2239109277542801
147.129974 0.008123741377094134
149.132324 0.08979696767519725
151.111359 0.006931377889859401
155.085205 0.062266102721992005
157.101151 0.22079046109210212
159.102173 0.007154180923408397
159.116653 0.1648607787088442
161.132446 0.04279042436632736
163.111404 0.0193667252238742
169.100876 0.04782920066351233
171.116699 0.08629210457052267
173.132416 0.07484712896255807
175.148453 0.0415344028695072
177.12735 0.008881516529659123
179.141479 0.0038598789273625385
181.100708 0.007388001689385639
183.116837 0.07031884093454854
185.132294 0.08475207041555215
187.110977 0.012676513254944207
187.14743 0.026009193685615127
190.823013 0.003634627508829488
191.142776 0.01512000146903099
193.157578 0.015788410569677978
195.116669 0.022400274219118214
197.132584 0.0522926064894444
199.147614 0.032927105458062225
201.127167 0.020047376249441463
203.143188 0.005938557778825142
209.132202 0.04249049720578064
211.14769 0.03669272156353865
212.156021 0.004434025206123411
213.163574 0.06663646991852999
217.158539 0.00508651980437404
223.148331 0.044534898667466474
225.163132 0.032813255556303676
227.178787 0.004407092971298807
229.158035 0.0041953076701780586
231.174316 0.00497634248009157
237.163422 0.03372038219289601
239.179352 0.006379267075955023
241.157928 0.004243051177367129
251.179733 0.021958340729496307
253.194778 0.322256431601305
255.172028 0.0056839257404834335
255.210342 0.00472660721171797
264.186523 0.014414866593623182
269.194153 0.006872616650242084
269.225983 0.07041432794892669
279.210358 1.0
297.220825 0.7434214955959675
313.215759 0.15596579606177274
339.18396 0.005807569182178206
339.231476 0.2088178585200737
357.241852 0.2808750527933012
368.244934 0.003801117687745221
375.251831 0.03129280848120559
398.270172 0.008473860429813984
398.42215 0.00404595618615071
399.253021 0.017149712620812496
417.262878 0.47683154499213454
END IONS

BEGIN IONS
CHARGE=1+
PRECURSORTYPE=M+H
FORMULA=C12H13NO
ONTOLOGY=
INCHIKEY=QRSYDKNRNVBMFQ-UHFFFAOYSA-N
INCHI=InChI=1S/C12H13NO/c1-7-4-5-10-8(2)6-11(14)13-12(10)9(7)3/h4-6H,1-3H3,(H,13,14)
SMILES=Cc1ccc2c(C)cc(O)nc2c1C
IONMODE=positive
INSTRUMENTTYPE=LC-ESI-Orbitrap
INSTRUMENT=Orbitrap
COMMENT=DB#=CCMSLIB00010104111; origin=GNPS
NUM_PEAKS=21
COMPOUND_NAME="4,7,8-trimethylhydroquinolin-2-one "
PRECURSOR_MZ=188.107
COLLISION_ENERGY=102040
PARENT_MASS=187.09972354800925
51.785389 0.0005205043300519899
68.747147 0.0004967567247820941
84.088882 0.0004892006685598546
84.95977 0.0011692457285614175
88.021461 0.0013261958106633657
92.38765 0.0005770668080584692
105.909554 0.0005874293994489692
107.816307 0.0006077228075886984
132.827332 0.0005762032587759275
143.085159 0.0037365777455577944
155.072235 0.0009874686045863966
158.72757 0.0006390264690808339
160.635727 0.0007417888337032922
164.982651 0.003529110030427159
165.034286 0.0009555172811323549
170.096054 0.03317130270295243
173.083099 0.0008505960433035423
187.441528 0.0009425640418942298
188.106583 1.0
188.776459 0.0009775377878371674
209.180405 0.0006787497360777505
END IONS

BEGIN IONS
CHARGE=1+
PRECURSORTYPE=M+H
FORMULA=C11H7Cl3O2
ONTOLOGY=
INCHIKEY=IQYSTSHQRRVQGE-UHFFFAOYSA-N
INCHI=InChI=1S/C11H7Cl3O2/c1-6-2-3-9-7(4-6)8(15)5-10(16-9)11(12,13)14/h2-5H,1H3
SMILES=Cc1ccc2oc(C(Cl)(Cl)Cl)cc(=O)c2c1
IONMODE=positive
INSTRUMENTTYPE=LC-ESI-Orbitrap
INSTRUMENT=Orbitrap
COMMENT=DB#=CCMSLIB00010109488; origin=GNPS
NUM_PEAKS=24
COMPOUND_NAME=6-methyl-2-(trichloromethyl)chromen-4-one
PRECURSOR_MZ=276.958
COLLISION_ENERGY=102040
PARENT_MASS=275.95072354800925
57.70042 0.0006231090891346291
58.126179 0.0005571355090510065
62.962158 0.0006165117311262669
73.949463 0.00072024949843017
75.668571 0.0006915851153593547
83.606461 0.0006369862904625635
84.959641 0.0009213551701333508
135.044434 0.000825352236356493
168.236908 0.0005905772893002911
180.535675 0.0007707534114597018
212.946243 0.002912847308243808
212.986694 0.039363705294652794
220.968552 0.0011254182781851078
225.013031 0.0008635714137842468
230.882141 0.001423891854287566
230.95755 0.0015774510493097912
240.982056 0.0014721208162797317
241.989258 0.4125130041888673
245.930923 0.0007050073264798158
248.963623 0.003928840441531597
276.95813 1.0
277.175903 0.0033398556179574626
290.989838 0.0006911301251518815
317.984863 0.0024328326393595195
END IONS

BEGIN IONS
CHARGE=1+
PRECURSORTYPE=M+H
FORMULA=C27H25ClN2O3
ONTOLOGY=
INCHIKEY=DLADOAYNOOCYAW-UHFFFAOYSA-N
INCHI=InChI=1S/C27H25ClN2O3/c1-32-24-9-5-6-19(27(24)33-2)26-25-22(29-20-7-3-4-8-21(20)30-26)14-17(15-23(25)31)16-10-12-18(28)13-11-16/h3-13,17,26,29-30H,14-15H2,1-2H3
SMILES=COc1cccc(C2Nc3ccccc3NC3=C2C(=O)CC(c2ccc(Cl)cc2)C3)c1OC
IONMODE=positive
INSTRUMENTTYPE=LC-ESI-Orbitrap
INSTRUMENT=Orbitrap
COMMENT=DB#=CCMSLIB00010105904; origin=GNPS
NUM_PEAKS=43
COMPOUND_NAME="11-(2,3-dimethoxyphenyl)-3-(4-chlorophenyl)-2,3,4-trihydro-5H,10H,11H-benzo[b] benzo[2,1-f]1,4-diazepin-1-one "
PRECURSOR_MZ=461.163
COLLISION_ENERGY=102040
PARENT_MASS=460.15572354800923
51.337181 0.0001962940552192627
71.640053 0.00022246541409719743
82.414742 0.0002736499502454636
85.77449 0.0002370785932584376
104.304428 0.00026018313451215737
118.678551 0.00030640403519926633
119.060638 0.00047739536774629677
125.014618 0.0005159935425466287
131.059952 0.00044616582796984947
133.075821 0.0049921468196096695
137.059738 0.00033937084738711867
147.126602 0.00028300994854364573
149.014832 0.00035157311789579674
157.075684 0.01491177137967793
157.090286 0.0005281308130671249
163.03038 0.0003989876547295173
165.009964 0.005906200289781766
173.465881 0.0002973099459436462
174.077621 0.00028410313016306724
183.0737 0.00045148991791092404
183.091232 0.0050729004412908285
185.070526 0.05628685203875417
191.070175 0.0010523025359449934
198.079117 0.001187721147687064
211.085983 0.009368135114884525
212.258545 0.0003451735736048048
215.067123 0.00032976266731587865
218.699738 0.0002871108568889351
252.113495 0.000330962212552325
255.066528 0.0015661806243307955
256.064728 0.0003219153960153825
272.057129 0.00035455720826232576
281.082977 0.001344737482775003
287.084595 0.0025387222656868607
287.115448 0.0003377753931317467
288.123047 0.0004972262732315867
297.077606 0.004850263663588425
305.082977 0.001154482517366815
322.09021 0.0003367708478598458
323.093567 1.0
329.093475 0.0012614252251954136
429.132599 0.001062147079609622
461.161346 0.44986444547919174
END IONS

BEGIN IONS
CHARGE=1+
PRECURSORTYPE=M+H
FORMULA=C17H14INO3
ONTOLOGY=
INCHIKEY=SIPWMMYQAMLGJU-UHFFFAOYSA-N
INCHI=InChI=1S/C17H14INO3/c1-22-17(21)15(19-14-9-7-13(18)8-10-14)11-16(20)12-5-3-2-4-6-12/h2-11,19H,1H3/b15-11+
SMILES=COC(=O)C(=CC(=O)c1ccccc1)Nc1ccc(I)cc1
IONMODE=positive
INSTRUMENTTYPE=LC-ESI-Orbitrap
INSTRUMENT=Orbitrap
COMMENT=DB#=CCMSLIB00010106822; origin=GNPS
NUM_PEAKS=32
COMPOUND_NAME=methyl (2E)-2-[(4-iodophenyl)amino]-4-oxo-4-phenylbut-2-enoate
PRECURSOR_MZ=408.009
COLLISION_ENERGY=102040
PARENT_MASS=407.00172354800924
53.038952 0.015141141493148057
82.393097 0.001691007224909955
95.049294 0.0028478719549881715
103.054169 0.17261127746637966
105.033463 0.46204657829117024
121.450638 0.0018002333709852731
136.195145 0.002300409198439931
137.709229 0.0018641706272244838
161.722351 0.002252456256260523
193.088272 0.03886719166258178
203.057861 0.00256614841968415
204.065063 0.03092165554868822
206.655106 0.002067304618401142
207.928345 0.002063974552972017
212.155685 0.0030829745742844356
217.945526 0.024828967839560113
220.075531 0.03917888578674794
221.083221 0.13821503164894183
222.091537 0.011637246648622153
232.075241 0.03081043136335543
245.940216 0.03757779032842437
248.070892 0.020706346838302678
249.077988 0.009547297585302957
253.072556 0.015346939536668016
264.1008 0.012098793717098953
269.940216 0.010119402826026726
280.097076 0.0020939451418341467
287.950867 0.02238469981458196
347.987274 0.13324724004177235
375.982178 0.5684501609087615
389.998108 0.009376132222245903
408.008362 1.0
END IONS

BEGIN IONS
CHARGE=1+
PRECURSORTYPE=M+H
FORMULA=C19H18ClN3O2
ONTOLOGY=
INCHIKEY=ZEVYCQPUTLTHNJ-UHFFFAOYSA-N
INCHI=InChI=1S/C19H18ClN3O2/c1-12-15(16-7-2-3-8-17(16)22-12)9-10-21-19(25)23-18(24)13-5-4-6-14(20)11-13/h2-8,11,22H,9-10H2,1H3,(H2,21,23,24,25)
SMILES=Cc1[nH]c2ccccc2c1CCN=C(O)N=C(O)c1cccc(Cl)c1
IONMODE=positive
INSTRUMENTTYPE=LC-ESI-Orbitrap
INSTRUMENT=Orbitrap
COMMENT=DB#=CCMSLIB00010112047; origin=GNPS
NUM_PEAKS=29
COMPOUND_NAME=(3-chlorophenyl)-N-({[2-(2-methylindol-3-yl)ethyl]amino}carbonyl)carboxamide
PRECURSOR_MZ=356.116
COLLISION_ENERGY=102040
PARENT_MASS=355.1087235480092
51.289299 0.0007211114022061999
64.373238 0.0009156474142856622
69.306396 0.0007401222842434164
72.012329 0.0007135591339996344
88.56382 0.0007422056685762621
113.015343 0.008710109049544442
117.069733 0.0009690341378148319
130.065475 0.001808638023951628
131.085602 0.0010005453258491222
138.994614 0.017887677458771126
140.991989 0.0049579338660894305
143.073212 0.013766482825360828
144.080948 0.00476209573880194
145.084534 0.0034938355261821515
156.021225 0.13649474752767385
156.080704 0.005844674322756859
157.088928 0.0031917447979195324
158.096588 1.0
171.092712 0.0013943049647569497
175.123062 0.006237392269498264
184.077774 0.0009552317166097295
199.086914 0.014656869204610738
201.102402 0.16064481786793738
225.021866 0.0012646142900373082
225.04425 0.001195862607053402
272.064178 0.0007830920861083578
296.087036 0.0024274031708067852
339.088531 0.00443943159025247
356.115509 0.15388736078435253
END IONS

BEGIN IONS
CHARGE=1+
PRECURSORTYPE=M+H
FORMULA=C13H14N2O4S
ONTOLOGY=
INCHIKEY=XSAYHNGEJLPKEX-UHFFFAOYSA-N
INCHI=InChI=1S/C13H14N2O4S/c1-17-9-6-8(7-10(18-2)11(9)19-3)12(16)15-13-14-4-5-20-13/h4-7H,1-3H3,(H,14,15,16)
SMILES=COc1cc(C(O)=Nc2nccs2)cc(OC)c1OC
IONMODE=positive
INSTRUMENTTYPE=LC-ESI-Orbitrap
INSTRUMENT=Orbitrap
COMMENT=DB#=CCMSLIB00010104060; origin=GNPS
NUM_PEAKS=40
COMPOUND_NAME="N-(1,3-thiazol-2-yl)(3,4,5-trimethoxyphenyl)carboxamide "
PRECURSOR_MZ=295.075
COLLISION_ENERGY=102040
PARENT_MASS=294.0677235480092
73.960892 0.00033809589624202716
75.044632 0.00034468160203879214
78.389 0.000284876273722224
79.05439 0.003096082688698048
81.03373 0.0006873162955191303
81.069992 0.0017840143027290543
83.049217 0.000476840698095494
90.9767 0.0015564514686435412
92.247147 0.00030231949448122306
93.59671 0.0002751757070756378
96.056824 0.00037707615487693317
96.110641 0.00028638920613499434
96.843193 0.00032430151247853306
104.29763 0.0003786780833139841
109.064621 0.0037790381790274285
111.080421 0.0006571466432880044
113.023598 0.002067377644038508
113.059486 0.000558895032482214
122.035896 0.0014924633271857846
123.042229 0.00034610553842728185
124.052002 0.002897265570455171
126.99588 0.01126031096812812
128.04657 0.003657380613835838
139.075211 0.010186840923255435
141.018188 0.0035722114185992968
143.070435 0.0005451006487187198
151.03804 0.00036417173135624514
152.046387 0.01056703193898219
156.041351 0.006662687357767667
158.963913 0.00047408182134279516
167.072342 0.0003722703695657804
180.040741 0.0005421637799174597
184.036407 0.000520804734090114
185.081848 0.002188412237060134
187.407486 0.0003194067311430996
195.06485 1.0
211.250137 0.00036550667172045425
271.84671 0.00039603230804870253
277.063629 0.004177562375755988
295.073975 0.24140661064248276
END IONS

BEGIN IONS
CHARGE=1+
PRECURSORTYPE=M+H
FORMULA=C21H18O6
ONTOLOGY=
INCHIKEY=OWYIHNQLFJKFDI-UHFFFAOYSA-N
INCHI=InChI=1S/C21H18O6/c1-4-9-26-17-7-5-13(10-18(17)24-2)11-19-20(22)15-12-14(21(23)25-3)6-8-16(15)27-19/h4-8,10-12H,1,9H2,2-3H3/b19-11+
SMILES=C=CCOc1ccc(C=C2Oc3ccc(C(=O)OC)cc3C2=O)cc1OC
IONMODE=positive
INSTRUMENTTYPE=LC-ESI-Orbitrap
INSTRUMENT=Orbitrap
COMMENT=DB#=CCMSLIB00010107030; origin=GNPS
NUM_PEAKS=108
COMPOUND_NAME=methyl 2-[(3-methoxy-4-prop-2-enyloxyphenyl)methylene]-3-oxobenzo[b]furan-5-ca rboxylate
PRECURSOR_MZ=367.118
COLLISION_ENERGY=102040
PARENT_MASS=366.1107235480092
56.32584 0.0007852228444592233
58.54245 0.000739383076007044
66.747276 0.0009138219786574993
69.033943 0.0015835781631236656
91.054283 0.0008833447272001045
94.041382 0.001147233123965353
102.046432 0.003180041017920376
104.292892 0.0009537149663375041
107.049156 0.0008612920818366236
115.054176 0.01528421771461746
121.028107 0.004062146832459611
122.036201 0.013438485632453763
129.069611 0.004713319327012732
130.041367 0.0055243115548180444
131.049011 0.001693345824876722
134.036148 0.001194559587610576
135.043976 0.004405325639520521
137.059723 0.009422674133510679
143.049133 0.045847449710676724
144.056519 0.004352795742699645
147.043869 0.0016004273753114937
147.080307 0.0013821309644662504
148.051468 0.0017644594116106435
149.060059 0.0014463066402993015
151.038635 0.0018422631267132614
157.064743 0.004253434947297894
159.044113 0.0037757102252665336
160.051956 0.0054470034047797745
161.059891 0.0018643157720767422
163.039474 0.0009423169698575027
163.07489 0.0030445039728212294
165.018356 0.00320605818379864
171.080002 0.0009599095296418526
173.023651 0.0030675477483134064
175.075256 0.04997352443643721
179.033829 0.05082416186939036
184.076004 0.0010248285530714254
189.054672 0.0014502711608140846
189.089844 0.0009440514475827203
191.033966 0.0017277875968488999
193.049271 0.003605235843130861
196.036591 0.014347599742999958
202.076187 0.001022350727749686
205.048798 0.012127963819785783
210.749985 0.0010196251198957727
217.048599 0.0036775883425256522
219.080872 0.003142130290497763
220.088486 0.0029374619189220866
220.654709 0.0009700686134609843
221.05957 0.011848465123493575
229.049896 0.0014103781731340799
235.073715 0.0008964772014053234
237.057358 0.0009975724745322919
243.065918 0.001482235107464523
247.075882 0.007522429894268716
248.047531 0.0013781664439514673
248.08345 0.008130736010755745
249.054214 0.024908339046785553
252.077179 0.007094013896139969
253.049606 0.0008387438714087948
258.068176 0.0012166122329740569
263.070404 0.004055456704090915
263.104187 0.0016341257996871498
264.077698 0.0009599095296418526
265.049866 0.003803214086337841
265.087036 0.001052827979207081
266.056335 0.008145107397621833
267.064789 0.006556573583854688
275.070007 0.009317862122401101
276.077423 0.004481394876897921
277.048737 0.0028809675015864277
279.064911 0.19388834473091685
280.072571 0.1013955855559633
283.06015 0.0052495207266371425
285.053864 0.0012515495700105828
289.08606 0.004360972566261385
291.064697 0.00101442168672012
291.099243 0.0010894997939688246
292.073792 0.00782249454073136
293.047302 0.0024171186013568075
293.080963 0.005530506118122393
294.051605 0.003338374055979525
295.059052 0.01131325485399786
297.075226 0.03625578789022342
298.081299 0.004305469279054422
303.064697 0.008589381477809712
307.059479 0.04865829475565793
307.09671 0.04920738084695538
308.067444 0.25057380239888183
309.073608 0.0073841672413156555
311.054718 0.007958774933427028
311.092072 0.002875268503346427
312.060425 0.001225284621600145
313.069305 0.0018881028951654407
317.080872 0.012806144610345863
321.07489 0.0012490717446888434
325.069641 0.02567968606944304
325.108368 0.0014492800306853887
326.077606 0.14880827752238282
327.087463 0.00118663054658101
334.083038 0.0011105613092036097
335.090637 0.07785748391209964
337.070465 0.0015364994820106165
339.123169 0.011150957295423928
349.104004 0.007532341195555674
352.094238 0.005349872652167589
365.21106 0.0009063885026922811
367.117218 1.0
END IONS

BEGIN IONS
CHARGE=1+
PRECURSORTYPE=M+H
FORMULA=C15H10O4
ONTOLOGY=
INCHIKEY=GPGOCTLAUAHUQO-UHFFFAOYSA-N
INCHI=InChI=1S/C15H10O4/c16-10-7-5-9(6-8-10)15-14(18)13(17)11-3-1-2-4-12(11)19-15/h1-8,16,18H
SMILES=O=c1c(O)c(-c2ccc(O)cc2)oc2ccccc12
IONMODE=positive
INSTRUMENTTYPE=LC-ESI-Orbitrap
INSTRUMENT=Orbitrap
COMMENT=DB#=CCMSLIB00010109938; origin=GNPS
NUM_PEAKS=21
COMPOUND_NAME="3,4'-Dihydroxyflavone "
PRECURSOR_MZ=255.065
COLLISION_ENERGY=102040
PARENT_MASS=254.05772354800925
61.090401 0.00033465007929586786
83.100693 0.0003698364340781112
104.01284 0.00038236682660847837
105.033348 0.005031522164239272
121.028282 0.017151069703156267
130.044952 0.00036426737073128133
133.028229 0.010397188129288337
151.03833 0.0004397028651565223
153.069366 0.0015008625719706511
157.965027 0.00043539949802488104
165.069351 0.0007744795140739091
171.0802 0.0021177629072535783
181.065002 0.0034821834272268978
199.075211 0.00473623523723577
209.059143 0.004552203007547347
226.061264 0.0006228491074943139
227.06955 0.002256230073195212
237.053482 0.0015020016985643207
238.063095 0.00042704590300463626
254.055786 0.0009033273887801093
255.064728 1.0
END IONS

BEGIN IONS
CHARGE=1+
PRECURSORTYPE=M+H
FORMULA=C18H16O5
ONTOLOGY=
INCHIKEY=PRWZDYJHEPXPGA-UHFFFAOYSA-N
INCHI=InChI=1S/C18H16O5/c1-20-12-6-4-5-11(9-12)17-18(22-3)16(19)14-10-13(21-2)7-8-15(14)23-17/h4-10H,1-3H3
SMILES=COc1cccc(-c2oc3ccc(OC)cc3c(=O)c2OC)c1
IONMODE=positive
INSTRUMENTTYPE=LC-ESI-Orbitrap
INSTRUMENT=Orbitrap
COMMENT=DB#=CCMSLIB00010103861; origin=GNPS
NUM_PEAKS=44
COMPOUND_NAME="3,6-dimethoxy-2-(3-methoxyphenyl)chromen-4-one "
PRECURSOR_MZ=313.107
COLLISION_ENERGY=102040
PARENT_MASS=312.09972354800925
54.866741 0.0005574766506156482
64.673264 0.0005366722683644119
66.276283 0.0004867821478201855
66.734787 0.0006574588759978024
84.960083 0.0005681818181818182
91.054367 0.0011842339139708496
93.834679 0.0005213214620431115
104.272568 0.000670991823675791
119.049187 0.0035143247261092978
121.065002 0.007323142552435122
129.402176 0.0005960556507126006
135.044403 0.008459910157386162
137.059784 0.007139134860873218
138.067917 0.001087887405875319
140.081604 0.0005358643311896067
147.04361 0.0027488042529812884
163.038376 0.0025708560902304237
165.05484 0.005264922599618653
176.047241 0.0011517144426849367
177.054184 0.0006550350644733866
191.033493 0.001244223249200142
210.542068 0.0011822140710338364
247.605011 0.000564950069482597
248.900284 0.002365236079242478
251.070221 0.001252302620948195
252.077927 0.004307921016061791
253.08461 0.0043866948906053065
255.065704 0.0006596807032285169
257.080109 0.0006554390330607892
257.116028 0.0007580470542610607
266.911102 0.0025496477393917847
268.262848 0.0010165869501987525
269.0802 0.014654970429499403
270.086578 0.0013256229195617749
279.065369 0.0033181979769253142
280.072632 0.012204900946902368
281.081329 0.011208108457486345
282.088104 0.0022008208641696022
283.063416 0.004356195262256407
283.094269 0.0009879051804931648
284.067993 0.003912233784700902
297.075653 0.06963347930064959
298.083221 0.04014175257731959
313.106964 1.0
END IONS

BEGIN IONS
CHARGE=1+
PRECURSORTYPE=M+H
FORMULA=C24H22N2OS
ONTOLOGY=
INCHIKEY=UUNUEWJUIFKEHU-UHFFFAOYSA-N
INCHI=InChI=1S/C24H22N2OS/c1-17-12-14-18(15-13-17)25-23(27)16-22-24(28-19-8-4-3-5-9-19)20-10-6-7-11-21(20)26(22)2/h3-15H,16H2,1-2H3,(H,25,27)
SMILES=Cc1ccc(NC(=O)Cc2c(Sc3ccccc3)c3ccccc3n2C)cc1
IONMODE=positive
INSTRUMENTTYPE=LC-ESI-Orbitrap
INSTRUMENT=Orbitrap
COMMENT=DB#=CCMSLIB00010106710; origin=GNPS
NUM_PEAKS=39
COMPOUND_NAME=N-(4-methylphenyl)-2-(1-methyl-3-phenylthioindol-2-yl)acetamide
PRECURSOR_MZ=387.153
COLLISION_ENERGY=102040
PARENT_MASS=386.14572354800924
53.561329 0.0006509232418541467
75.026268 0.0009317563461992468
82.388557 0.0010067419296161126
91.054298 0.0012546781328492973
92.366913 0.0008635436541877755
93.036682 0.0007230061575258434
104.275162 0.0009740869174829613
118.065002 0.03249415596227306
130.065079 0.005606260860815147
132.080444 0.0015971929267792385
135.026215 0.009861087997275362
136.187744 0.0006448760173850446
144.067734 0.0012261352333551355
144.080673 0.04172004350131394
145.088547 0.09949691930196645
146.059982 0.005778485813695174
175.045944 0.0008831366614676662
176.052277 0.0009416737943285742
197.041824 0.0035381100923822387
211.057693 0.011698718568946099
218.096771 0.0040722009574933335
219.103897 0.026466040722493353
219.126358 0.001414566747812356
220.111023 0.0029128270822770847
221.041229 0.0013001532608569448
235.057907 0.001531399124555408
236.053009 0.009684025264820054
237.060028 0.015547172221082657
249.897919 0.0006980915927131429
250.068222 0.022769251460041877
251.074982 0.001007951374509933
252.083878 1.0
253.08725 0.0029948274460781087
277.134033 0.0010955151848225308
278.140808 0.0189599838224651
280.078552 0.08031875162065616
354.172577 0.0010703587310310662
387.150635 0.03572409949570986
387.382935 0.014189691272258624
END IONS

BEGIN IONS
CHARGE=1+
PRECURSORTYPE=M+H
FORMULA=C10H12O4
ONTOLOGY=
INCHIKEY=OJOBTAOGJIWAGB-UHFFFAOYSA-N
INCHI=InChI=1S/C10H12O4/c1-6(11)7-4-8(13-2)10(12)9(5-7)14-3/h4-5,12H,1-3H3
SMILES=COc1cc(C(C)=O)cc(OC)c1O
IONMODE=positive
INSTRUMENTTYPE=LC-ESI-Orbitrap
INSTRUMENT=Orbitrap
COMMENT=DB#=CCMSLIB00010107448; origin=GNPS
NUM_PEAKS=29
COMPOUND_NAME=Acetosyringone
PRECURSOR_MZ=197.081
COLLISION_ENERGY=102040
PARENT_MASS=196.07372354800924
50.384079 0.0015055597540183214
61.249519 0.0018403738733136958
66.737511 0.0016453722433944118
68.619347 0.0016637686235754763
70.077637 0.0017285238818128235
71.862793 0.0015776735643280944
81.070343 0.001760901510931497
95.049149 0.009486645331771359
113.963898 0.0022612830518564525
118.643929 0.002510002111904445
119.943283 0.0024665866546771326
123.044144 0.05467551360853828
126.96489 0.003488689537537078
137.060883 0.002364302780870414
137.095459 0.0019529597200218108
139.034363 0.002233320553981234
140.046814 0.34116970072032865
150.961273 0.0028904392540488595
154.56955 0.0016313909944568026
155.070251 1.0
155.973938 0.003549765519738212
173.080765 0.04242426026315654
173.978317 0.0028610050457591562
182.052414 0.0018830534753337656
191.989807 0.001824185058754359
196.097015 0.002327510020508285
197.08075 0.3721455256692051
209.842438 0.0020765833948385645
216.79454 0.0016961462526941498
END IONS

BEGIN IONS
CHARGE=1+
PRECURSORTYPE=M+H
FORMULA=C10H12O4
ONTOLOGY=
INCHIKEY=OJOBTAOGJIWAGB-UHFFFAOYSA-N
INCHI=InChI=1S/C10H12O4/c1-6(11)7-4-8(13-2)10(12)9(5-7)14-3/h4-5,12H,1-3H3
SMILES=COc1cc(C(C)=O)cc(OC)c1O
IONMODE=positive
INSTRUMENTTYPE=LC-ESI-Orbitrap
INSTRUMENT=Orbitrap
COMMENT=DB#=CCMSLIB00010107449; origin=GNPS
NUM_PEAKS=44
COMPOUND_NAME=Acetosyringone
PRECURSOR_MZ=197.081
COLLISION_ENERGY=102040
PARENT_MASS=196.07372354800924
54.87677 0.0017612488181093457
61.011169 0.006715610844348863
66.726051 0.001824282986336417
71.92981 0.001964564909743723
72.937477 0.002172824857709635
79.021553 0.0029471563556363054
84.959747 0.001790293974057114
89.940117 0.00789719250758573
90.947746 0.011292385843267395
91.948433 0.001874957513734651
95.049332 0.00921843811218846
107.950363 0.005762064554404049
109.064857 0.00183849657328958
118.924179 0.002371197093012477
118.942551 0.003136876842358961
119.925362 0.001546191067687573
121.975769 0.0013521447066748241
123.043983 0.05013564705809649
125.960983 0.005862795627159075
134.955597 0.005540826983567858
136.953308 0.002608502196926157
137.060135 0.0015777081518011087
140.046844 0.32493928326442834
141.807327 0.0016629896735200875
150.95079 0.010957439576805898
150.963074 0.0015579327264749687
151.63942 0.0017686646026066483
152.966888 0.0025022092857981547
155.070282 1.0
155.974365 0.0018675417292373484
157.011169 0.00165063003269125
157.743271 0.001819339130004882
165.049332 0.0014948985582478973
168.961868 0.002648671029619879
168.991302 0.0018131593095904632
173.065079 0.0029076055049840253
173.080811 0.05289802678334168
178.946411 0.01245728199138533
179.071335 0.0019559131611635366
185.963333 0.002113498581731215
187.001968 0.0022142296544862407
196.433929 0.0017359115544102288
196.956314 0.011994413442345366
197.08078 0.35485455792654663
END IONS

BEGIN IONS
CHARGE=1+
PRECURSORTYPE=M+H
FORMULA=C26H26N2O3
ONTOLOGY=
INCHIKEY=NQRDCKYGFHPVJS-UHFFFAOYSA-N
INCHI=InChI=1S/C26H26N2O3/c1-18-21(14-15-27-26(29)22-10-6-7-11-25(22)30-2)23-16-20(12-13-24(23)28-18)31-17-19-8-4-3-5-9-19/h3-13,16,28H,14-15,17H2,1-2H3,(H,27,29)
SMILES=COc1ccccc1C(O)=NCCc1c(C)[nH]c2ccc(OCc3ccccc3)cc12
IONMODE=positive
INSTRUMENTTYPE=LC-ESI-Orbitrap
INSTRUMENT=Orbitrap
COMMENT=DB#=CCMSLIB00010106476; origin=GNPS
NUM_PEAKS=51
COMPOUND_NAME=(2-methoxyphenyl)-N-{2-[2-methyl-5-(phenylmethoxy)indol-3-yl]ethyl}carboxamide
PRECURSOR_MZ=415.202
COLLISION_ENERGY=102040
PARENT_MASS=414.1947235480092
53.039108 0.000952561892829278
58.258308 0.0005040573187679189
60.12101 0.0005176174375545595
77.038643 0.0008666811405138876
79.054192 0.0029986817523231183
86.262573 0.000505515396056805
91.054222 0.11602970803314559
92.026031 0.0013304955261085507
92.384132 0.000693461558594221
95.049187 0.0009511038155403919
103.054153 0.0011953317614288108
107.048576 0.0008535584449139129
111.701553 0.0007242269893897174
115.053673 0.0010856843493045774
117.069641 0.05025977834017439
119.085297 0.01699986891885173
122.059914 0.001264882048108677
134.059204 0.002839897135563424
135.043793 0.5192707513924274
136.04747 0.0007071674851097502
141.014359 0.0037742330622816257
144.080795 0.0011794387189799525
145.088547 0.007087276278088583
146.059555 0.0009245668088826652
148.075699 0.004076784099725487
152.070343 0.028143516214621394
160.075287 0.03701941590298653
162.091644 0.000850204867149475
172.075241 0.012873218575846338
173.083145 0.15240159181213783
174.07373 0.0008652230632250015
174.090942 0.03406637196980555
178.085831 0.0649163712480573
186.090897 0.025561261336004143
217.096848 0.008935097626293916
225.090759 0.006393085680849919
236.142731 0.018439720241626736
238.121719 0.0029604801273543026
240.062729 0.0005963536111544079
249.113632 0.006354009209507772
252.136185 0.0009390017740426373
258.967987 0.0005658797958166887
263.128235 0.0011705444475177474
264.137543 1.0
323.137512 0.007778113297562809
324.143768 0.0020233738537872173
337.15448 0.0013535331472729509
397.096252 0.005042322880425852
397.187927 0.00477957735296858
398.1745 0.009845666893203275
415.200287 0.5183432684289669
END IONS

BEGIN IONS
CHARGE=1+
PRECURSORTYPE=M+H
FORMULA=C27H30O15
ONTOLOGY=
INCHIKEY=HGUVPEBGCAVWID-UHFFFAOYSA-N
INCHI=InChI=1S/C27H30O15/c28-7-15-19(32)22(35)24(37)26(40-15)18-14(41-27-25(38)23(36)20(33)16(8-29)42-27)6-13-17(21(18)34)11(31)5-12(39-13)9-1-3-10(30)4-2-9/h1-6,15-16,19-20,22-30,32-38H,7-8H2/t15-,16-,19-,20-,22+,23+,24-,25-,26+,27-/m1/s1
SMILES=O=c1cc(-c2ccc(O)cc2)oc2cc(OC3OC(CO)C(O)C(O)C3O)c(C3OC(CO)C(O)C(O)C3O)c(O)c12
IONMODE=positive
INSTRUMENTTYPE=LC-ESI-Orbitrap
INSTRUMENT=Orbitrap
COMMENT=DB#=CCMSLIB00010113814; origin=GNPS
NUM_PEAKS=51
COMPOUND_NAME=Saponarin
PRECURSOR_MZ=595.166
COLLISION_ENERGY=102040
PARENT_MASS=594.1587235480093
50.51265 0.002279805938022328
51.01627 0.0020778365529089404
57.418579 0.0025864321863308345
73.028618 0.0019407421824077322
81.033638 0.0032431387021692125
85.028732 0.02670035271198982
97.028236 0.008896445400024848
98.469368 0.0022033023830551357
106.167488 0.0022394120609996507
109.028191 0.004546759278810168
118.655724 0.0025111526882431174
127.038559 0.005029649717763085
144.019699 0.002360593692067683
256.916016 0.002153728079436395
267.064728 0.009835297026582231
270.051575 0.003155006606847007
271.058929 0.05459477290990758
281.080017 0.015192993988044636
283.059723 0.772357857924942
284.065704 0.0027045536752001794
295.060181 0.05488548641878291
295.094849 0.0052695648661401995
297.041595 0.0025852081294513592
297.075775 0.013314066678050396
307.060455 0.004881538835346601
308.068573 0.0031225690995409176
309.039459 0.010608900974410479
309.07489 0.12281085077461379
311.056122 0.004757297062079881
313.070099 0.8148497684390398
321.074341 0.011032424654708856
323.090973 0.14984781912845926
325.067993 0.004022250905955098
333.075256 0.028749423928231096
335.055054 0.003475709509269477
337.070129 0.5003595667083458
349.069855 0.11317079082030784
351.085846 0.03130341860725584
361.069946 0.12184445786826822
367.08075 0.3828170567429927
379.08075 0.25172362509341084
397.091461 0.29484898504263696
415.101837 0.6396841688439578
433.112335 0.39180102220990004
475.123199 0.08488834459159648
499.124329 0.041993107335711675
529.132263 0.039504599699738845
541.13446 0.008962544471516502
559.144592 0.021138850280094816
577.154541 0.2829444198613021
595.165283 1.0
END IONS

BEGIN IONS
CHARGE=1+
PRECURSORTYPE=M+H
FORMULA=C14H15N5OS
ONTOLOGY=
INCHIKEY=KKSYXUAEBWBHOR-UHFFFAOYSA-N
INCHI=InChI=1S/C14H15N5OS/c1-9-2-4-10(5-3-9)20-7-6-19-13-11(18-14(19)21)12(15)16-8-17-13/h2-5,8H,6-7H2,1H3,(H,18,21)(H2,15,16,17)
SMILES=Cc1ccc(OCCn2c(S)nc3c(N)ncnc32)cc1
IONMODE=positive
INSTRUMENTTYPE=LC-ESI-Orbitrap
INSTRUMENT=Orbitrap
COMMENT=DB#=CCMSLIB00010104903; origin=GNPS
NUM_PEAKS=53
COMPOUND_NAME=6-amino-9-[2-(4-methylphenoxy)ethyl]purine-8-thiol
PRECURSOR_MZ=302.107
COLLISION_ENERGY=102040
PARENT_MASS=301.09972354800925
59.79332 0.00034585115060324986
65.038757 0.0001513830848681685
66.19812 0.00014289904748952586
67.054581 0.00013137595194539928
73.951477 0.0001850976363915059
79.054314 0.00020586453385564612
82.394417 0.00017734170669834377
91.054497 0.000870943419258271
92.376747 0.00014508337054596742
105.070137 0.0003649085778493054
107.049538 0.0002519569160321525
107.085419 0.004891427431058174
108.056152 0.00029757444537030194
109.06356 0.0008520126194357773
110.058563 0.00301452410216883
117.069527 0.0006313959907351779
135.054794 0.0002223260989186841
135.066788 0.0008680309885163488
135.0802 0.007922603039425385
136.061981 0.0027919447484030225
136.073303 0.0003145741769834777
137.082214 0.002118666737324769
140.015427 0.0001563848680988608
140.026917 0.00032128543043225476
150.01239 0.00022894238179978977
150.077011 0.0021875203988865146
151.006592 0.00020092606433673473
152.014847 0.00021092963079811936
152.027618 0.0035080861423569553
153.022949 0.0012882124367503934
160.061447 0.000956923439856754
161.069687 0.0011387287632356523
162.077225 0.013462362879120131
166.017807 0.005745307804991488
167.025574 0.03204411420856562
167.038269 0.0026924789071952043
168.033661 0.044213104583425214
169.022217 0.00016619849342490269
170.037766 0.0008566661772516746
176.05603 0.0006529226527406891
177.022949 0.0036765639294059713
177.1474 0.00015717628949612225
180.033585 0.04972829870294897
194.049286 0.39411256557480273
195.056976 0.06280894321374196
195.088364 0.0006042977220929462
195.097382 0.00036664970492328053
196.065216 0.0006581776908185051
223.523911 0.00016486890547750348
254.878723 0.00019687398678275614
300.753845 0.0002189704721942956
302.106354 1.0
303.467316 0.0003329668102558336
END IONS

BEGIN IONS
CHARGE=1+
PRECURSORTYPE=M+H
FORMULA=C19H15NO4
ONTOLOGY=
INCHIKEY=GTHIKWPDZKULJR-UHFFFAOYSA-N
INCHI=InChI=1S/C19H15NO4/c1-11-3-5-14(7-12(11)2)18-15(19(21)24-20-18)8-13-4-6-16-17(9-13)23-10-22-16/h3-9H,10H2,1-2H3/b15-8-
SMILES=Cc1ccc(C2=NOC(=O)C2=Cc2ccc3c(c2)OCO3)cc1C
IONMODE=positive
INSTRUMENTTYPE=LC-ESI-Orbitrap
INSTRUMENT=Orbitrap
COMMENT=DB#=CCMSLIB00010107018; origin=GNPS
NUM_PEAKS=25
COMPOUND_NAME="4-(2H-benzo[3,4-d]1,3-dioxolan-5-ylmethylene)-3-(3,4-dimethylphenyl)isoxazol-5 -one "
PRECURSOR_MZ=322.107
COLLISION_ENERGY=102040
PARENT_MASS=321.09972354800925
54.990768 0.0002651284903195768
77.038872 0.0006207203516490883
79.054466 0.004644871726446417
81.070023 0.00028054346695529937
92.369133 0.0002923608567247824
99.73085 0.0003279496432560001
100.122917 0.00028093054908647706
103.054413 0.0012648022483916054
105.069817 0.010027726920751628
123.08033 0.002350385470047949
133.064728 0.7583714935595909
133.468018 0.0003427043033150078
134.067093 0.0005759099025809908
161.022766 0.0030560817342591
188.03392 0.0015953020798059525
206.044418 0.02884303792257301
216.029709 0.0006923077763798294
234.039398 0.01762300695964564
264.103119 0.002779249701855681
276.100494 0.0034135862367073717
278.117218 0.0014641495459481063
292.095917 0.0027881753604098954
294.11264 0.005162263918608195
304.098053 0.0024767791706460226
322.10675 1.0
END IONS

BEGIN IONS
CHARGE=1+
PRECURSORTYPE=M+H
FORMULA=C22H20N2O4
ONTOLOGY=
INCHIKEY=KXBZBBGZKWRRHH-UHFFFAOYSA-N
INCHI=InChI=1S/C22H20N2O4/c1-13-16(17-12-15(27-2)7-8-19(17)24-13)9-10-23-21(25)18-11-14-5-3-4-6-20(14)28-22(18)26/h3-8,11-12,24H,9-10H2,1-2H3,(H,23,25)
SMILES=COc1ccc2[nH]c(C)c(CCN=C(O)c3cc4ccccc4oc3=O)c2c1
IONMODE=positive
INSTRUMENTTYPE=LC-ESI-Orbitrap
INSTRUMENT=Orbitrap
COMMENT=DB#=CCMSLIB00010108271; origin=GNPS
NUM_PEAKS=35
COMPOUND_NAME=N-[2-(5-methoxy-2-methylindol-3-yl)ethyl](2-oxochromen-3-yl)carboxamide
PRECURSOR_MZ=377.15
COLLISION_ENERGY=102040
PARENT_MASS=376.1427235480092
53.940121 0.0003017006021085069
61.309231 0.00029454269122278806
61.772572 0.0003705020142040729
73.973793 0.00032178548638485226
80.599319 0.00031879412064156673
82.19062 0.00033642181162878474
82.418602 0.00044528615778620986
143.073624 0.0006776511753449926
145.088348 0.0007088468466678268
147.081009 0.0008126899717561657
156.080826 0.001361605585649051
157.089005 0.006253236417356631
158.096054 0.0033713760271735665
162.091232 0.0026499227105876077
172.039383 0.0008467701743314538
172.075562 0.00037477539383733784
173.083618 0.036594231813537915
174.090897 0.0027359244757070656
175.09436 0.0021229081673152053
176.108475 0.0004285131427256449
186.092911 0.0004868447747197117
187.09935 0.003769761843484693
188.107101 1.0
190.049759 0.00143126167367127
191.03392 0.005441401121527118
216.065445 0.01003923710344773
225.43454 0.0004110991207200901
248.552582 0.0003868476913013114
280.236359 0.00033108008708720353
296.038208 0.00036227575841003785
296.328094 0.0004259491149456859
359.138336 0.001763944278120948
360.122467 0.00047477247725573817
377.149475 0.25805903310726086
391.775238 0.0004644095316450706
END IONS

BEGIN IONS
CHARGE=1+
PRECURSORTYPE=M+H
FORMULA=C22H22ClN3O3
ONTOLOGY=
INCHIKEY=DYYXYCYEWPMGMK-UHFFFAOYSA-N
INCHI=InChI=1S/C22H22ClN3O3/c1-3-25(4-2)22(29)18-13-21(28)26(19-11-6-5-10-17(18)19)14-20(27)24-16-9-7-8-15(23)12-16/h5-13H,3-4,14H2,1-2H3,(H,24,27)
SMILES=CCN(CC)C(=O)c1cc(=O)n(CC(O)=Nc2cccc(Cl)c2)c2ccccc12
IONMODE=positive
INSTRUMENTTYPE=LC-ESI-Orbitrap
INSTRUMENT=Orbitrap
COMMENT=DB#=CCMSLIB00010112541; origin=GNPS
NUM_PEAKS=21
COMPOUND_NAME="2-[4-(N,N-diethylcarbamoyl)-2-oxohydroquinolyl]-N-(3-chlorophenyl)acetamide "
PRECURSOR_MZ=412.142
COLLISION_ENERGY=102040
PARENT_MASS=411.1347235480092
51.004841 0.002256476968917245
55.49754 0.002309086648141683
86.096542 0.01597229861253928
95.217918 0.002150301070846107
100.075974 0.014679057043240374
130.064331 0.0028753581045210847
157.051651 0.002935620100723622
158.059219 0.0058788925184253445
158.0961 0.01908774816224825
184.099304 0.023564353594436767
186.055481 0.011785524685896302
213.138062 0.0043618206775170145
216.090118 0.009461133403798418
227.083572 0.0029174458479006345
229.133347 0.013643124632330082
245.128296 0.08500958930971318
257.128174 0.3509773443590467
285.123138 1.0
298.153778 0.011671696470847063
412.114349 0.004507214700100915
420.23996 0.0029815340025922225
END IONS

BEGIN IONS
CHARGE=1+
PRECURSORTYPE=M+H
FORMULA=C20H11BrO6
ONTOLOGY=
INCHIKEY=HNMJRVNTKFYJEI-UHFFFAOYSA-N
INCHI=InChI=1S/C20H11BrO6/c21-14-4-1-2-5-15(14)27-18-11-25-17-10-12(7-8-13(17)19(18)22)26-20(23)16-6-3-9-24-16/h1-11H
SMILES=O=C(Oc1ccc2c(=O)c(Oc3ccccc3Br)coc2c1)c1ccco1
IONMODE=positive
INSTRUMENTTYPE=LC-ESI-Orbitrap
INSTRUMENT=Orbitrap
COMMENT=DB#=CCMSLIB00010113285; origin=GNPS
NUM_PEAKS=14
COMPOUND_NAME=3-(2-bromophenoxy)-4-oxochromen-7-yl furan-2-carboxylate
PRECURSOR_MZ=426.981
COLLISION_ENERGY=102040
PARENT_MASS=425.9737235480092
58.474171 0.0006373870763774319
74.292549 0.0007791094023678531
90.770798 0.0006376293367637404
92.369003 0.0011061609238842093
93.493683 0.00071854430579075
95.012894 0.5137085462196478
113.022758 0.0008915182216149562
124.207458 0.0008648695791210309
124.705704 0.0008493649143972925
197.414581 0.0007759600173458436
332.975159 0.0031348493988308515
347.052948 0.0016585146046673887
376.964172 0.0009118680940648628
426.980591 1.0
END IONS

BEGIN IONS
CHARGE=1+
PRECURSORTYPE=M+H
FORMULA=C15H21NO6
ONTOLOGY=
INCHIKEY=QTUHHHIOMGXNRY-UHFFFAOYSA-N
INCHI=InChI=1S/C15H21NO6/c1-8(2)12(15(18)19)16-14(17)9-6-10(20-3)13(22-5)11(7-9)21-4/h6-8,12H,1-5H3,(H,16,17)(H,18,19)
SMILES=COc1cc(C(O)=NC(C(=O)O)C(C)C)cc(OC)c1OC
IONMODE=positive
INSTRUMENTTYPE=LC-ESI-Orbitrap
INSTRUMENT=Orbitrap
COMMENT=DB#=CCMSLIB00010109485; origin=GNPS
NUM_PEAKS=40
COMPOUND_NAME="3-methyl-2-[(3,4,5-trimethoxyphenyl)carbonylamino]butanoic acid "
PRECURSOR_MZ=312.144
COLLISION_ENERGY=102040
PARENT_MASS=311.13672354800923
53.039021 0.00048455861051799863
55.05479 0.00043974150505112663
55.946899 0.0004230228983095662
64.576973 0.00041023808138954945
69.033859 0.0006663558972707647
72.077438 0.00043538623774870333
72.081123 0.008597438147477219
75.044563 0.0005255824186569535
79.054298 0.002735669835896338
81.034279 0.0005889445332825313
81.070213 0.0014425769245574977
81.150162 0.0003880402673965533
82.403183 0.0005403341304877422
85.438087 0.00047247625606611465
97.807678 0.00047753398583667074
98.036789 0.000450418934566745
109.064613 0.003841907730711856
111.080261 0.0018403111740142835
113.02327 0.0025066670712850484
113.059097 0.0006330591762812704
122.035927 0.002316721219901942
124.052513 0.002908616095550631
124.075523 0.0036574410865801853
128.046738 0.0032744585489541877
139.075439 0.011154542023974201
141.018372 0.0037245964985336798
141.708694 0.0003887427298646861
143.070602 0.0008350873821162609
151.038834 0.0006305303113959925
152.046631 0.011761329103947305
156.041458 0.00670261588593583
180.042542 0.00045294779945202307
184.036865 0.0004994508148424138
185.081192 0.0007474200660932887
189.054169 0.002826147001791841
195.064987 1.0
266.138245 0.0018442449638358272
288.926636 0.001696165875553435
294.134521 0.0015632599765827112
312.145386 0.010615050848448219
END IONS

BEGIN IONS
CHARGE=1+
PRECURSORTYPE=M+H
FORMULA=C15H12O4
ONTOLOGY=
INCHIKEY=NXTSNFDLQUTBRV-UHFFFAOYSA-N
INCHI=InChI=1S/C15H12O4/c16-11-6-8-15(19)12(9-11)14(18)7-5-10-3-1-2-4-13(10)17/h1-9,16-17,19H/b7-5+
SMILES=O=C(C=Cc1ccccc1O)c1cc(O)ccc1O
IONMODE=positive
INSTRUMENTTYPE=LC-ESI-Orbitrap
INSTRUMENT=Orbitrap
COMMENT=DB#=CCMSLIB00010108339; origin=GNPS
NUM_PEAKS=26
COMPOUND_NAME="2,2',5'-Trihydroxychalcone "
PRECURSOR_MZ=257.081
COLLISION_ENERGY=102040
PARENT_MASS=256.07372354800924
54.07288 0.0004409560084712529
81.033752 0.006122788512888915
91.054207 0.0007079783688480875
96.020866 0.005017607630897674
103.054352 0.004309269150976927
107.049332 0.0028005838120709952
109.028938 0.0006148896565656712
111.00808 0.0008565241863200285
119.049149 0.002327577918133069
121.029388 0.0005464685527604134
127.038857 0.0022919269219398033
135.043991 0.002999725235251561
137.023331 1.0
137.441055 0.000598144491687016
147.043732 0.006695365118417124
156.274109 0.0005988647138323344
163.038879 0.11429619351792868
169.064209 0.0007830615274975414
187.075775 0.0011728817636511807
193.15657 0.0005601527735214649
197.05986 0.00272135937608596
211.075714 0.001036219611576995
215.070053 0.043557594904572366
228.771423 0.0005943633254240938
239.069931 0.1727555447202135
257.080444 0.1328231879841018
END IONS

BEGIN IONS
CHARGE=1+
PRECURSORTYPE=M+H
FORMULA=C15H10O3
ONTOLOGY=
INCHIKEY=ISZWRZGKEWQACU-UHFFFAOYSA-N
INCHI=InChI=1S/C15H10O3/c16-11-5-3-4-10(8-11)15-9-13(17)12-6-1-2-7-14(12)18-15/h1-9,16H
SMILES=O=c1cc(-c2cccc(O)c2)oc2ccccc12
IONMODE=positive
INSTRUMENTTYPE=LC-ESI-Orbitrap
INSTRUMENT=Orbitrap
COMMENT=DB#=CCMSLIB00010104546; origin=GNPS
NUM_PEAKS=32
COMPOUND_NAME=3'-Hydroxyflavone
PRECURSOR_MZ=239.07
COLLISION_ENERGY=102040
PARENT_MASS=238.06272354800925
54.59354 0.00011720745036780845
65.039078 0.0001328788241512525
70.632011 0.00012402679293466276
77.035469 0.00013255097114323066
77.039787 0.00022277611895084152
95.049263 0.0001419931377742597
115.056732 0.00013982930792131554
116.026894 0.00015163201621010185
119.049423 0.000490041891090247
121.028023 0.0016633622361988145
145.028854 0.0003404425635298806
155.084793 0.0001627134478812401
165.068771 0.0002662166425137356
175.034363 0.00019094159187192067
183.080917 0.00021825174744014012
187.023651 0.00025077476583590684
193.06395 0.00015107466609646473
196.029678 0.003990364531235442
196.530518 0.0003093293130686078
197.029251 0.0007522915122069182
205.035034 0.0002908056181153737
207.537476 0.0003082146128413335
211.072617 0.0002587088086300354
222.069016 0.0002810355984763228
227.030441 0.00026185619750704504
238.060318 0.00077468387265481
238.092239 0.000213071669913395
238.120926 0.0004923368621463999
239.070007 1.0
240.024582 0.0005194503059098062
240.050278 0.00016930329334247912
284.126953 0.0002877565851407706
END IONS

BEGIN IONS
CHARGE=1+
PRECURSORTYPE=M+H
FORMULA=C18H19NO4
ONTOLOGY=
INCHIKEY=OJQMJANMNHJQMO-UHFFFAOYSA-N
INCHI=InChI=1S/C18H19NO4/c1-11-16(18(21)23-3)14-10-15(20)12-6-4-5-7-13(12)17(14)19(11)8-9-22-2/h4-7,10,20H,8-9H2,1-3H3
SMILES=COCCn1c(C)c(C(=O)OC)c2cc(O)c3ccccc3c21
IONMODE=positive
INSTRUMENTTYPE=LC-ESI-Orbitrap
INSTRUMENT=Orbitrap
COMMENT=DB#=CCMSLIB00010110082; origin=GNPS
NUM_PEAKS=52
COMPOUND_NAME=methyl 5-hydroxy-1-(2-methoxyethyl)-2-methylbenzo[g]indole-3-carboxylate
PRECURSOR_MZ=314.139
COLLISION_ENERGY=102040
PARENT_MASS=313.13172354800923
59.049591 0.041998201278959646
59.05299 0.001528380054556157
73.945976 0.0007381094135030836
78.410133 0.0008766451468885407
82.390221 0.0009217954567570804
98.052048 0.0008371035711651612
98.94091 0.0009848937158901327
101.356133 0.0008132664510482303
104.281761 0.000829531780069195
104.54673 0.0007184788439950228
106.074097 0.0009074931846869219
157.963959 0.0009725545007707802
184.072968 0.0008777668937175728
194.0961 0.006011160820075454
195.102661 0.0009498391274828814
196.07579 0.004539148543678157
197.081955 0.0011402556517110705
207.067612 0.016388440735450874
210.090851 0.012830259793761237
221.083191 0.001991100621531874
222.053131 0.005187798647565935
222.09108 0.10968356363263128
223.062241 0.011654949553642916
223.098953 0.048131071629985075
223.121658 0.0008934713493240214
224.07019 0.059943626613106996
224.107132 0.004637581827925719
225.110962 0.00187892593862867
238.120728 0.0014333120107956916
239.093307 0.0017364640913416008
240.06488 0.004445202246746724
241.07222 0.0015768956049117928
242.080566 0.0019383785205673682
242.11557 0.000988539393084487
250.085846 0.17081764406804853
251.091995 0.0014274228399432732
254.082321 0.004176263444486292
254.116867 0.03662839920838326
255.088333 0.0457005266881799
255.124496 0.01804638254876023
256.095367 0.0036908275042226756
267.088806 0.012341458613010524
267.926971 0.0015348300988230913
268.09668 0.020394198661924295
269.100037 0.0048571637697087415
270.111725 0.00567631939160939
280.891418 0.0011997082336497689
282.112 1.0
283.341431 0.0009562891717498157
300.121918 0.010297355453806886
314.137817 0.6976651120190406
314.188293 0.021788529970411124
END IONS

BEGIN IONS
CHARGE=1+
PRECURSORTYPE=M+H
FORMULA=C16H12O2
ONTOLOGY=
INCHIKEY=OPHKKQQCOYMLPW-UHFFFAOYSA-N
INCHI=InChI=1S/C16H12O2/c1-11-6-8-12(9-7-11)16-10-14(17)13-4-2-3-5-15(13)18-16/h2-10H,1H3
SMILES=Cc1ccc(-c2cc(=O)c3ccccc3o2)cc1
IONMODE=positive
INSTRUMENTTYPE=LC-ESI-Orbitrap
INSTRUMENT=Orbitrap
COMMENT=DB#=CCMSLIB00010103607; origin=GNPS
NUM_PEAKS=25
COMPOUND_NAME=4'-Methylflavone
PRECURSOR_MZ=237.091
COLLISION_ENERGY=102040
PARENT_MASS=236.08372354800926
50.303902 0.0002674347312439196
52.41824 0.00024950025222558975
57.468102 0.00028035810583065736
73.740303 0.00024958816633842467
76.694283 0.000286336265503434
95.049553 0.0009182629085610587
104.282967 0.0002728854062396866
115.054352 0.0004350869444201704
117.069588 0.001949583366227864
121.028358 0.004034466552108717
126.678307 0.00027042381108030795
143.049377 0.0003779427710774525
157.970444 0.0003600082920591226
165.070877 0.0003424254694921325
166.077286 0.0011423559821773478
178.077805 0.0017300618264789922
181.101807 0.0010146167762281645
213.92244 0.0016201691854353041
222.067764 0.0004636590310915293
236.082825 0.0011609937740983572
236.149048 0.0016964786353760412
237.090958 1.0
238.03894 0.0015068478939910528
238.06427 0.00033002957958240444
249.765594 0.00032097442596040456
END IONS

BEGIN IONS
CHARGE=1+
PRECURSORTYPE=M+H
FORMULA=C16H12O2
ONTOLOGY=
INCHIKEY=OPHKKQQCOYMLPW-UHFFFAOYSA-N
INCHI=InChI=1S/C16H12O2/c1-11-6-8-12(9-7-11)16-10-14(17)13-4-2-3-5-15(13)18-16/h2-10H,1H3
SMILES=Cc1ccc(-c2cc(=O)c3ccccc3o2)cc1
IONMODE=positive
INSTRUMENTTYPE=LC-ESI-Orbitrap
INSTRUMENT=Orbitrap
COMMENT=DB#=CCMSLIB00010103608; origin=GNPS
NUM_PEAKS=29
COMPOUND_NAME=4'-Methylflavone
PRECURSOR_MZ=237.091
COLLISION_ENERGY=102040
PARENT_MASS=236.08372354800926
55.93478 0.001245360144466118
60.52808 0.00018022513394308972
62.61721 0.0002076770672039925
66.731689 0.0002293832469916831
71.929482 0.00022580811149723994
73.039291 0.00022121150871867016
90.976753 0.00029705545456507136
91.054321 0.00024687587423235136
95.049004 0.0009088505160516562
112.709091 0.00021023073541430904
117.06942 0.0017665638261917236
118.633881 0.00022210529259228095
121.028236 0.0038448028574525808
143.049255 0.0009595408300264394
165.070724 0.0003679197474013553
166.077652 0.0011047807094881925
178.076797 0.0021645530167695563
181.101471 0.0012332302204671145
183.911514 0.0015032167920028304
195.947876 0.0008704816511916501
201.922333 0.0009693724526361581
203.938232 0.0003525977381394561
213.922501 0.007501081159278542
222.067734 0.0008414336752992995
231.933685 0.0011566201741576184
236.082275 0.00118196533114501
236.151031 0.0009098081416305248
237.090561 1.0
238.035248 0.0011030569834462288
END IONS

BEGIN IONS
CHARGE=1+
PRECURSORTYPE=M+H
FORMULA=C5H12N2O2
ONTOLOGY=
INCHIKEY=AHLPHDHHMVZTML-SCSAIBSYSA-N
INCHI=InChI=1S/C5H12N2O2/c6-3-1-2-4(7)5(8)9/h4H,1-3,6-7H2,(H,8,9)/t4-/m1/s1
SMILES=NCCC[C@@H](N)C(=O)O
IONMODE=positive
INSTRUMENTTYPE=LC-ESI-Orbitrap
INSTRUMENT=Orbitrap
COMMENT=DB#=CCMSLIB00010103376; origin=GNPS
NUM_PEAKS=10
COMPOUND_NAME=D-ornithine
PRECURSOR_MZ=133.097
COLLISION_ENERGY=102040
PARENT_MASS=132.08972354800926
59.0882 0.0060939316156765405
59.725498 0.005716622619111855
63.178101 0.005685228028381805
70.065804 1.0
71.412697 0.007264213525423119
78.061302 0.005837586813611756
82.261803 0.005974172337631972
115.086998 0.031770984387309124
116.070999 0.3043364089282181
133.097 0.008032356977643483
END IONS

BEGIN IONS
CHARGE=1+
PRECURSORTYPE=M+H
FORMULA=C5H12N2O2
ONTOLOGY=
INCHIKEY=AHLPHDHHMVZTML-SCSAIBSYSA-N
INCHI=InChI=1S/C5H12N2O2/c6-3-1-2-4(7)5(8)9/h4H,1-3,6-7H2,(H,8,9)/t4-/m1/s1
SMILES=NCCC[C@@H](N)C(=O)O
IONMODE=positive
INSTRUMENTTYPE=LC-ESI-Orbitrap
INSTRUMENT=Orbitrap
COMMENT=DB#=CCMSLIB00010126992; origin=GNPS
NUM_PEAKS=10
COMPOUND_NAME=D-ornithine
PRECURSOR_MZ=133.097
COLLISION_ENERGY=102040
PARENT_MASS=132.08972354800926
59.0882 0.0060939316156765405
59.725498 0.005716622619111855
63.178101 0.005685228028381805
70.065804 1.0
71.412697 0.007264213525423119
78.061302 0.005837586813611756
82.261803 0.005974172337631972
115.086998 0.031770984387309124
116.070999 0.3043364089282181
133.097 0.008032356977643483
END IONS

BEGIN IONS
CHARGE=1+
PRECURSORTYPE=M+H
FORMULA=C16H12O4
ONTOLOGY=
INCHIKEY=WHLQVYWQNZFUPW-UHFFFAOYSA-N
INCHI=InChI=1S/C16H12O4/c1-19-11-8-5-9-12-13(11)14(17)15(18)16(20-12)10-6-3-2-4-7-10/h2-9,18H,1H3
SMILES=COc1cccc2oc(-c3ccccc3)c(O)c(=O)c12
IONMODE=positive
INSTRUMENTTYPE=LC-ESI-Orbitrap
INSTRUMENT=Orbitrap
COMMENT=DB#=CCMSLIB00010107851; origin=GNPS
NUM_PEAKS=9
COMPOUND_NAME=3-Hydroxy-5-methoxyflavone
PRECURSOR_MZ=269.081
COLLISION_ENERGY=102040
PARENT_MASS=268.07372354800924
105.033592 0.001397983546681945
137.242844 0.0009159088611208583
142.554413 0.0008878236326954351
176.297836 0.0009572106676288335
198.097702 0.0008603992331741397
253.049393 0.03069649384008337
254.025604 0.0017584657138835526
254.057083 0.15098222304165007
269.080505 1.0
END IONS

BEGIN IONS
CHARGE=1+
PRECURSORTYPE=M+H
FORMULA=C38H52ClNO4
ONTOLOGY=
INCHIKEY=HJRJHCRVZOCICT-UHFFFAOYSA-N
INCHI=InChI=1S/C38H52ClNO4/c1-23(41)44-30-14-15-36(6)29(33(30,2)3)13-16-38(8)31(36)28(42)21-24-25-22-35(5,18-17-34(25,4)19-20-37(24,38)7)32(43)40-27-12-10-9-11-26(27)39/h9-12,21,25,29-31H,13-20,22H2,1-8H3,(H,40,43)
SMILES=CC(=O)OC1CCC2(C)C(CCC3(C)C2C(=O)C=C2C4CC(C)(C(O)=Nc5ccccc5Cl)CCC4(C)CCC23C)C1(C)C
IONMODE=positive
INSTRUMENTTYPE=LC-ESI-Orbitrap
INSTRUMENT=Orbitrap
COMMENT=DB#=CCMSLIB00010113295; origin=GNPS
NUM_PEAKS=117
COMPOUND_NAME="17-[N-(2-chlorophenyl)carbamoyl]-1,2,6,6,10,17,20-heptamethyl-12-oxopentacyclo [12.8.0.0<2,11>.0<5,10>.0<15,20>]docos-13-en-7-yl acetate "
PRECURSOR_MZ=622.366
COLLISION_ENERGY=102040
PARENT_MASS=621.3587235480093
55.05476 0.0011405545802775586
58.381901 0.0006887539272219119
66.001213 0.0006220708546924695
67.054558 0.0031412294495102265
69.034103 0.0007735236413415319
69.070183 0.0035175777492654357
79.054558 0.0015187298135267253
81.070137 0.016747133952408018
83.049309 0.007804477192836301
83.085983 0.0028726702258984995
91.054512 0.0013435268914562177
92.385223 0.0008626779958466493
93.070007 0.008038507373412235
95.049187 0.0012178338670719535
95.085617 0.031484823754812374
97.064819 0.0008935531718945282
97.101303 0.0014894988776234079
97.563026 0.000744110012088819
104.290947 0.0007609178002332263
105.069817 0.010120115396427213
107.078087 0.0011204583118440282
107.085571 0.022662379219143047
109.064636 0.0029247378304762834
109.101196 0.013853636684678403
111.08036 0.0011345256997474995
119.085457 0.030850329752360992
121.06459 0.0007366195847635939
121.101112 0.023090612430126646
123.080452 0.0016809615077901358
123.116814 0.011238929468126678
128.026352 0.0008414855673167444
129.173294 0.0006633595516559051
131.086365 0.0010068230485198823
133.101212 0.021098706841664972
135.080627 0.00609465013584164
135.116699 0.02254618624892736
137.095779 0.0011074870840369312
137.132782 0.0056675130849544175
139.11174 0.0015963744870199116
143.085403 0.0012355551219633398
145.101334 0.005473310054546754
147.08046 0.0011188140716994666
147.116547 0.014558284933297744
149.096069 0.015303673798832334
149.132401 0.006051351812034852
151.110382 0.0009043320795088765
154.0056 0.0013402384111670944
157.100952 0.004667449690362177
159.116699 0.007891073840449878
161.096176 0.004576468402363102
161.132507 0.014047474328387276
163.111588 0.0033072977041109473
163.148117 0.0028332084624290215
169.100937 0.0009078032531473954
171.116592 0.004899835630793548
173.132416 0.014406832146648682
175.111984 0.005726523036809239
175.147919 0.04256115614197685
177.126404 0.0007019078483784047
177.163483 0.007906602775148515
185.132767 0.001365815480082497
187.111893 0.0008352739934372896
187.147949 0.006801125317954938
189.127914 0.0033467594675804257
189.163589 0.10557300581531201
191.143326 0.0011529777280364685
191.179413 0.009304024204676475
197.13295 0.0014387101264913943
199.147507 0.011290997072704463
201.128204 0.001509229759358147
201.163361 0.0046458918751334805
203.143616 0.0014856623172860976
203.179413 0.0010534098526157943
207.173752 0.0007132348360409401
211.148071 0.002698198077225575
213.163406 0.0029956228500418276
215.143127 0.005935889615216748
215.179489 0.0030334403733667443
217.158463 0.04151103476965018
219.174164 0.002703496184358051
225.164642 0.001016688489387252
227.179565 0.003748502142901642
229.158798 0.0013113728619625687
229.195251 0.001371296280564369
231.172958 0.00101248654235115
235.169296 0.0012881708065893107
236.083557 0.0007041001685711535
241.194839 0.001232632028373008
243.211273 0.0013353056907334097
245.18956 0.0034781159857959574
250.099808 0.003105238859679267
253.194092 0.007006472642675741
255.211197 0.0010769772946878438
257.190094 0.0014902296510209908
265.195831 0.00091145712013531
267.210388 0.0023561961271567635
267.679504 0.0006615326181619478
269.190216 0.0008354566867866852
271.205109 0.013526432895910647
277.178802 0.0106044354656753
278.13028 0.000806956524280951
283.206573 0.0008012930304496833
285.222504 0.0026629382607921987
290.130676 0.0016360189438387855
311.236542 0.0010150442492426904
344.176727 0.019784958966160258
344.222137 0.0007263887571974329
346.191467 0.001087025428904609
389.32077 0.010270106636281109
407.330292 0.02028371181001061
417.307739 0.00092515912133999
426.218872 0.004902027950986297
467.350922 0.02861434584910662
544.337463 0.0028721221458503123
562.342102 0.007846679356546716
607.353455 0.0008849665844729288
622.36499 1.0
END IONS

BEGIN IONS
CHARGE=1+
PRECURSORTYPE=M+H
FORMULA=C26H18O6
ONTOLOGY=
INCHIKEY=WFUFWBKEAWXSJX-UHFFFAOYSA-N
INCHI=InChI=1S/C26H18O6/c1-14-10-12-15(13-11-14)20(21-23(27)16-6-2-4-8-18(16)31-25(21)29)22-24(28)17-7-3-5-9-19(17)32-26(22)30/h2-13,20,27-28H,1H3
SMILES=Cc1ccc(C(c2c(O)c3ccccc3oc2=O)c2c(O)c3ccccc3oc2=O)cc1
IONMODE=positive
INSTRUMENTTYPE=LC-ESI-Orbitrap
INSTRUMENT=Orbitrap
COMMENT=DB#=CCMSLIB00010112305; origin=GNPS
NUM_PEAKS=28
COMPOUND_NAME=4-hydroxy-3-[(4-hydroxy-2-oxochromen-3-yl)(4-methylphenyl)methyl]chromen-2-one
PRECURSOR_MZ=427.118
COLLISION_ENERGY=102040
PARENT_MASS=426.1107235480092
55.124889 0.0010395024845881854
59.962341 0.0009195999913809222
63.394852 0.0011781723245583243
68.998009 0.001055837027141059
69.128036 0.0010308138981238908
73.954712 0.0012730516887484195
82.397949 0.0012959895570141568
91.054413 0.002201340266593636
117.069656 0.018639798313580123
118.653633 0.001242467864394103
121.028328 0.018681155985150164
136.218262 0.001023167942035312
141.608902 0.0009696462494152581
143.049149 0.004517717417974531
145.064682 0.008362243156695528
149.023193 0.01922471395435642
163.038757 0.6984191638243404
169.100708 0.005825523452580128
175.617661 0.0010547943967653436
189.054138 0.0014468234180343082
191.033539 0.10197515898375513
197.095474 0.02181599798146759
219.080368 0.002114801945409264
237.090042 0.009796555010221253
247.075104 0.006849734024991155
265.085449 1.0
313.32547 0.0010763420911967937
427.115662 0.019099598309270584
END IONS

BEGIN IONS
CHARGE=1+
PRECURSORTYPE=M+H
FORMULA=C15H10O4
ONTOLOGY=
INCHIKEY=ZQSIJRDFPHDXIC-UHFFFAOYSA-N
INCHI=InChI=1S/C15H10O4/c16-10-3-1-9(2-4-10)13-8-19-14-7-11(17)5-6-12(14)15(13)18/h1-8,16-17H
SMILES=O=c1c(-c2ccc(O)cc2)coc2cc(O)ccc12
IONMODE=positive
INSTRUMENTTYPE=LC-ESI-Orbitrap
INSTRUMENT=Orbitrap
COMMENT=DB#=CCMSLIB00010107329; origin=GNPS
NUM_PEAKS=36
COMPOUND_NAME=daidzein
PRECURSOR_MZ=255.065
COLLISION_ENERGY=102040
PARENT_MASS=254.05772354800925
51.902771 0.0001633917380927123
55.01804 0.00022945061270011302
57.078739 0.0002075750246248904
68.390228 0.0001697113524255544
68.997589 0.0002005532309217325
90.783768 0.00020179554826921426
91.054367 0.0008498530932729704
97.31498 0.00019077673353502805
106.609306 0.0002178916599887608
119.048897 0.001070607484540711
121.028481 0.0004042932759087443
129.069427 0.0007382065733927601
133.02832 0.0016836100748263943
137.023224 0.016231092200040317
143.085587 0.0003047458467170522
145.028168 0.003106981672254214
149.023117 0.0012372940642941359
153.069321 0.0011381787454841764
157.064163 0.001994837577269438
165.069061 0.0004133135801274164
171.079132 0.0014583185245504594
181.064514 0.002162982529561211
185.059601 0.0009582047714924683
199.075241 0.031339939724922855
209.058746 0.0008742673298408732
211.075455 0.0008836117168458448
213.922455 0.0007739637074811487
227.069824 0.015239939011940722
231.933533 0.00036173040330806424
237.054352 0.005387552239444462
238.062286 0.00040116047564118157
253.049637 0.00026364134665472023
254.016602 0.0014302853635355444
254.055923 0.00048164103423891427
255.064789 1.0
256.119812 0.0014727402085407913
END IONS

BEGIN IONS
CHARGE=1+
PRECURSORTYPE=M+H
FORMULA=C15H10O4
ONTOLOGY=
INCHIKEY=ZQSIJRDFPHDXIC-UHFFFAOYSA-N
INCHI=InChI=1S/C15H10O4/c16-10-3-1-9(2-4-10)13-8-19-14-7-11(17)5-6-12(14)15(13)18/h1-8,16-17H
SMILES=O=c1c(-c2ccc(O)cc2)coc2cc(O)ccc12
IONMODE=positive
INSTRUMENTTYPE=LC-ESI-Orbitrap
INSTRUMENT=Orbitrap
COMMENT=DB#=CCMSLIB00010107330; origin=GNPS
NUM_PEAKS=43
COMPOUND_NAME=daidzein
PRECURSOR_MZ=255.065
COLLISION_ENERGY=102040
PARENT_MASS=254.05772354800925
52.519459 0.00017199753325211116
53.767349 0.00014919190428627934
54.82251 0.0001341101068775029
60.535271 0.0001682575727086949
68.997452 0.00017699769789167856
72.240189 0.00015614335268762915
82.399063 0.00015626530792274055
91.054466 0.0008086851640236935
92.37394 0.00015228143690910147
93.708817 0.00014394782917648914
98.984154 0.00016732258257284082
118.654984 0.00022732455824764963
119.049347 0.0012315852676449916
121.028214 0.0006196545496010234
126.995743 0.0001826889421968772
129.069595 0.0006363624168112853
133.018433 0.00017305447862307662
133.028366 0.0015490347446399657
137.02327 0.015679865881762775
141.070511 0.0002067954270038973
143.085403 0.0001732577373482623
145.028107 0.0032775875953639125
149.022812 0.0008355153157482015
153.07016 0.0010938165037141466
155.08551 0.0002736675475899816
157.06427 0.0022403989724864926
165.069916 0.000636281113321211
171.079193 0.0014804145990172848
181.064728 0.0020135215834342513
184.050369 0.00027224473651368196
185.059402 0.0009964962260952494
199.075287 0.029355397474469688
209.05957 0.000862833288413155
211.074875 0.0008303931958735227
213.052887 0.0002361053351756704
213.921127 0.0002598459542773563
227.069916 0.015199646817639117
237.054443 0.004692796795341635
238.061813 0.000306717416305171
254.015091 0.001524115224932203
254.054901 0.00035724753538632776
255.06485 1.0
256.121399 0.0014766746384738685
END IONS

BEGIN IONS
CHARGE=1+
PRECURSORTYPE=M+H
FORMULA=C23H21N3O5
ONTOLOGY=
INCHIKEY=OEQTWVMRQCTMBL-UHFFFAOYSA-N
INCHI=InChI=1S/C23H21N3O5/c27-21-18(12-15-4-6-16(7-5-15)25-10-2-1-3-11-25)22(28)26(23(29)24-21)17-8-9-19-20(13-17)31-14-30-19/h4-9,12-13H,1-3,10-11,14H2,(H,24,27,29)/b18-12+
SMILES=O=C1N=C(O)C(=Cc2ccc(N3CCCCC3)cc2)C(=O)N1c1ccc2c(c1)OCO2
IONMODE=positive
INSTRUMENTTYPE=LC-ESI-Orbitrap
INSTRUMENT=Orbitrap
COMMENT=DB#=CCMSLIB00010112179; origin=GNPS
NUM_PEAKS=32
COMPOUND_NAME="1-(2H-benzo[3,4-d]1,3-dioxolen-5-yl)-5-[(4-piperidylphenyl)methylene]-1,3-dihy dropyrimidine-2,4,6-trione "
PRECURSOR_MZ=420.155
COLLISION_ENERGY=102040
PARENT_MASS=419.1477235480092
66.736069 0.0008828175552602916
69.070183 0.007351247976456664
92.366661 0.0008989368193928564
105.202888 0.0007835113744435975
134.023224 0.0011338175253245153
162.018295 0.007090749154314321
163.02562 0.0015900502690765735
171.054886 0.003206870030373299
172.03894 0.0011248943612511312
172.111938 0.0010828691369055158
189.065445 0.004665087746365682
201.065796 0.008415119409205942
214.122406 0.005947720620914055
215.044861 0.004760076267146867
215.117325 0.00158832320506237
218.0448 0.0018424894591526333
227.044388 0.004061766717403969
239.116226 0.006498366197442563
240.100891 0.0014570663399829135
257.12854 0.005209688598844479
258.110901 0.0018919986275597967
283.107178 0.013045665875287556
293.088409 0.0014029516675378745
309.085907 0.007266621839760698
321.086151 0.0035764617294128213
352.092743 0.00485535263193042
359.139191 0.0011231672972369278
364.091644 0.06900340346748399
364.800781 0.0009688829119680931
377.099792 0.0015019700043522014
377.148041 0.014746536085275513
420.154022 1.0
END IONS

BEGIN IONS
CHARGE=1+
PRECURSORTYPE=M+H
FORMULA=C17H12FN5OS
ONTOLOGY=
INCHIKEY=LWSTYEFXLCIYPR-UHFFFAOYSA-N
INCHI=InChI=1S/C17H12FN5OS/c1-2-6-25-17-22-14(20)13-12(9-4-3-5-10(18)7-9)11(8-19)15(21)24-16(13)23-17/h1,3-5,7,12H,6,21H2,(H2,20,22,23)
SMILES=C#CCSc1nc(N)c2c(n1)OC(N)=C(C#N)C2c1cccc(F)c1
IONMODE=positive
INSTRUMENTTYPE=LC-ESI-Orbitrap
INSTRUMENT=Orbitrap
COMMENT=DB#=CCMSLIB00010104654; origin=GNPS
NUM_PEAKS=98
COMPOUND_NAME="4,7-diamino-5-(3-fluorophenyl)-2-prop-2-ynylthio-5H-pyrano[2,3-d]pyrimidine-6- carbonitrile "
PRECURSOR_MZ=354.082
COLLISION_ENERGY=102040
PARENT_MASS=353.0747235480092
56.04998 0.006830549344406271
68.396591 0.00031024475842973746
70.995499 0.0006225863168333508
73.011147 0.005033127720898737
81.04483 0.0004905094020854566
88.02179 0.0029741388940926956
96.037247 0.0005683616945581166
98.006203 0.00338174735622741
100.021561 0.00035921878732776593
113.016739 0.007195426913630747
114.016296 0.0005582815864869835
114.024727 0.008469125479728928
115.032501 0.03753277968647684
116.016434 0.005361148015172582
124.055847 0.0033501879385878226
125.004097 0.0030374897523197998
126.995613 0.0015298433071691655
135.060287 0.0006782073735174163
140.027725 0.006984243063802873
141.011795 0.023761100579369896
146.040115 0.0036387170677799185
148.055817 0.011234697227239838
149.039444 0.001333298386667102
152.028015 0.00040895333588845023
162.070648 0.00030416919457100673
163.065903 0.0003684567380323423
164.027344 0.007249303501484087
164.050644 0.007864731480701706
165.011993 0.0014543413212246
166.043121 0.0026375036736966755
166.057938 0.00034909571204405344
173.051056 0.0034051558936406805
174.035019 0.1798732467228907
176.05098 0.0006069849219457617
180.023224 0.0006020436924991277
182.038361 0.003415360606628294
189.046814 0.0005238949262596698
190.005692 0.0025917264054145565
191.061478 0.010015145942434247
192.045609 0.00035603491687563057
193.030685 0.0016082326897990681
194.039719 0.0019237151514422375
199.063705 0.0003984521491340388
201.081757 0.00240972158964937
202.090225 0.0025391946913149513
203.001724 0.00043513325851309383
203.060852 0.00042555586682914003
203.097534 0.0003638979167776653
207.033615 0.01873596905673219
212.063065 0.000625705736466617
213.045761 0.0016899305477975867
214.729401 0.0004002911458324382
217.074631 0.00042560313076297736
220.028107 0.00518696752881811
221.054703 0.021578516565579138
223.031036 0.00047292292197669803
228.09375 0.0013518860028289613
229.076981 0.004078159937714728
230.084457 0.0024774722904446077
231.033188 0.0015684579411142944
231.092346 0.001391355684304421
233.017548 0.004466484714843797
240.0569 0.006458530624451094
243.038925 0.0024996476688568486
248.02832 0.002509512940865085
249.03598 0.005951337053721047
250.044708 0.026465581544035378
250.077026 0.002990328939792623
254.072281 0.0033345049059963325
255.081314 0.0054633842007840655
256.086853 0.002533832383185039
258.043243 0.009351508750702514
260.064423 0.0037666390530713824
261.047272 0.0013302906817865424
261.073303 0.0039022306858082735
267.103821 0.0015335728612210595
268.053864 0.008941201947617812
270.049194 0.007232095132846028
271.033813 0.0031288939036400103
278.073608 0.004359590883388703
279.079803 0.001807720864362822
282.016418 0.0003553474414743597
288.059967 0.4023642966525104
289.067749 0.04498622041492578
289.121582 0.0004866036824619869
290.03772 0.0005651821208272392
295.099609 0.001472490671818149
309.058289 0.0026293785737979062
310.042786 0.008147064737839849
311.075287 0.0016292995141267601
314.056732 0.000384767091927492
315.057922 0.003407450342792422
317.049286 0.0021101971507581996
326.086853 0.0018525270736406464
327.071564 0.0018352370672986857
328.070129 0.00041375707025482995
337.055115 0.01754951541577653
354.081635 1.0
END IONS

BEGIN IONS
CHARGE=1+
PRECURSORTYPE=M+H
FORMULA=C10H17NO5
ONTOLOGY=
INCHIKEY=LLXWDSPVRCKBPZ-UHFFFAOYSA-N
INCHI=InChI=1S/C10H17NO5/c1-3-6(2)9(10(15)16)11-7(12)4-5-8(13)14/h6,9H,3-5H2,1-2H3,(H,11,12)(H,13,14)(H,15,16)
SMILES=CCC(C)C(N=C(O)CCC(=O)O)C(=O)O
IONMODE=positive
INSTRUMENTTYPE=LC-ESI-Orbitrap
INSTRUMENT=Orbitrap
COMMENT=DB#=CCMSLIB00010110617; origin=GNPS
NUM_PEAKS=30
COMPOUND_NAME=2-(3-carboxypropanoylamino)-3-methylpentanoic acid
PRECURSOR_MZ=232.118
COLLISION_ENERGY=102040
PARENT_MASS=231.11072354800925
51.409611 0.0010666015673800144
53.143909 0.0011644962580880881
55.01836 0.009105025438283542
68.288857 0.0010678303710290697
69.070312 0.09446550932477649
72.044823 0.002736955327662541
73.02877 0.036990676247512184
73.065292 0.006377490938597091
82.414253 0.0011300897559145392
86.096687 1.0
97.065117 0.005833950124498289
100.03376 0.004255756637894912
100.039398 0.22986738341418178
101.023376 0.3393017691905338
112.03933 0.002064799731629283
115.075409 0.023045393235599752
118.050034 0.02134186177679273
119.034416 0.004904155363379767
126.055199 0.004787009415503161
128.238403 0.0012189732198628737
132.101929 0.24240937265887305
153.375198 0.0014979116481984305
168.101913 0.35715710541374024
174.127029 0.00237609665605663
186.112457 0.8196009746870544
208.954803 0.002765627412807165
209.005081 0.002249939481420284
213.969284 0.006399199803063735
214.107254 0.32176469311243266
232.117722 0.06604450972577608
END IONS

BEGIN IONS
CHARGE=1+
PRECURSORTYPE=M+H
FORMULA=C10H10O3
ONTOLOGY=
INCHIKEY=AFDXODALSZRGIH-UHFFFAOYSA-N
INCHI=InChI=1S/C10H10O3/c1-13-9-5-2-8(3-6-9)4-7-10(11)12/h2-7H,1H3,(H,11,12)/b7-4+
SMILES=COc1ccc(C=CC(=O)O)cc1
IONMODE=positive
INSTRUMENTTYPE=LC-ESI-Orbitrap
INSTRUMENT=Orbitrap
COMMENT=DB#=CCMSLIB00010110288; origin=GNPS
NUM_PEAKS=51
COMPOUND_NAME=4-Methoxycinnamic acid
PRECURSOR_MZ=179.07
COLLISION_ENERGY=102040
PARENT_MASS=178.06272354800925
51.02359 0.0002798100213993408
54.41954 0.00023521696386874147
56.942589 0.000291985600247286
61.011101 0.001816596364113425
63.023319 0.0002505886321642723
66.046417 0.00022989014812276545
66.207207 0.00022486772184798805
66.737419 0.00020668045094386988
69.332092 0.00022699844814637847
70.957809 0.0002360540349145377
71.929588 0.00025987251103583054
72.937202 0.001339694160112971
73.944023 0.0002639056715292124
77.039032 0.0002636773794258134
79.021072 0.0015496467978722262
79.054466 0.0029211496577254545
84.937767 0.0005323771851264042
89.038841 0.0009513692922313187
89.940208 0.0020700005988862845
90.046707 0.0003896946205020463
90.947739 0.002449650366838776
92.368187 0.0003336108604336987
96.937599 0.00047089051194428087
102.947899 0.0012833060105734248
103.054008 0.003796954263731713
105.069679 0.005299040206729153
107.950256 0.0013071244866947177
109.06456 0.0015148703007877827
116.004517 0.0003309474525607107
117.002808 0.00026162275049522265
118.041153 0.0061594731444398814
118.942574 0.0014786479537151457
125.961113 0.0012078935190839642
132.43132 0.0003049982501410274
132.957794 0.00037584489956250865
133.064804 0.17376308865213982
134.95549 0.0019362214262944866
136.95192 0.0004296457385968665
137.059814 0.007353897429423306
137.96402 0.000525756714127834
140.95134 0.0016683586916396921
142.966476 0.00044631106214499153
146.035873 0.0009806667788341869
150.951324 0.0036756550594590587
152.966415 0.0010661241228732022
155.974854 0.006553961899113306
161.059708 1.0
168.961472 0.0013184629944968666
178.991745 0.0003333064709625001
179.070404 0.017768354894381038
187.966171 0.00029830168177465757
END IONS

BEGIN IONS
CHARGE=1+
PRECURSORTYPE=M+H
FORMULA=C6H6N4S
ONTOLOGY=
INCHIKEY=UIJIQXGRFSPYQW-UHFFFAOYSA-N
INCHI=InChI=1S/C6H6N4S/c1-11-6-4-5(8-2-7-4)9-3-10-6/h2-3H,1H3,(H,7,8,9,10)
SMILES=CSc1ncnc2[nH]cnc12
IONMODE=positive
INSTRUMENTTYPE=LC-ESI-Orbitrap
INSTRUMENT=Orbitrap
COMMENT=DB#=CCMSLIB00010104002; origin=GNPS
NUM_PEAKS=18
COMPOUND_NAME=6-(Methylthio)purine
PRECURSOR_MZ=167.039
COLLISION_ENERGY=102040
PARENT_MASS=166.03172354800924
53.141651 0.0008076112271145142
56.587551 0.0008010875322366056
59.935509 0.0010091486271641757
60.12075 0.0009196376969085822
63.42548 0.0009176497845332455
79.4618 0.001033350275568055
81.305763 0.000943770753605659
83.156921 0.0011842196053635263
92.376289 0.0010185020417281814
119.035553 0.00563673052875496
126.012283 0.016206465616907924
133.051147 0.004041574266570579
134.058731 0.013548825063471524
137.045929 0.0012991044786483544
151.061676 0.0021957801663632735
152.014969 0.011035779569341058
167.038773 1.0
179.644333 0.0009960912604328235
END IONS

BEGIN IONS
CHARGE=1+
PRECURSORTYPE=M+H
FORMULA=C6H6N4S
ONTOLOGY=
INCHIKEY=UIJIQXGRFSPYQW-UHFFFAOYSA-N
INCHI=InChI=1S/C6H6N4S/c1-11-6-4-5(8-2-7-4)9-3-10-6/h2-3H,1H3,(H,7,8,9,10)
SMILES=CSc1ncnc2[nH]cnc12
IONMODE=positive
INSTRUMENTTYPE=LC-ESI-Orbitrap
INSTRUMENT=Orbitrap
COMMENT=DB#=CCMSLIB00010104003; origin=GNPS
NUM_PEAKS=79
COMPOUND_NAME=6-(Methylthio)purine
PRECURSOR_MZ=167.039
COLLISION_ENERGY=102040
PARENT_MASS=166.03172354800924
56.474541 0.00014116086638321117
61.01107 0.003177725253219165
62.01878 0.0016992950934336768
62.990261 0.003367277874727541
64.014519 0.00024225073191617264
67.441093 0.00013105187982991504
69.873878 0.00012875272404342528
70.982971 0.00023017104040302813
71.928886 0.00017823931525739488
72.937187 0.00024462287677524936
78.013588 0.007095742175151731
79.021431 0.005463925479324714
79.029381 0.00016813032870409872
81.017036 0.0007891578528103822
84.959824 0.015226724861340834
85.179626 0.0001395186122500042
85.936958 0.00013408092634227452
88.952652 0.003406473006706747
88.968689 0.00014692700311758227
89.939713 0.0007103661489527419
90.947647 0.0005796062254131748
94.039658 0.0006183634229568589
102.947853 0.00016732744890564198
102.970131 0.0018533750256647826
106.039879 0.0007720419152887364
106.962723 0.00013488380614073127
107.950317 0.00016634209642571782
114.985588 0.0014914952037785568
115.983566 0.0016939668911348275
116.484467 0.0007906541287984152
116.983017 0.00017385997090217631
119.035042 0.0036006969288606893
120.043007 0.000555921271358701
120.980141 0.0003147653755313331
121.05101 0.0011987360336321968
123.991173 0.0014489425744603499
124.049919 0.0012721630406546944
124.990158 0.0011939917439140434
125.00383 0.00027265068064864805
125.490562 0.000948091558368522
125.969887 0.00028535077927878183
125.98848 0.0011980061429063271
126.011887 0.015193149887950825
133.050995 0.0032834134303251056
134.058594 0.013200986140761909
134.070419 0.00027779641026602983
134.956284 0.0007434301988346419
137.045135 0.0015711262819709472
137.476807 0.0005487683422451774
138.473663 0.0006547849701777598
138.973724 0.00033202729119815287
139.000305 0.0010239272047863899
140.027451 0.0007560573083921887
141.015701 0.0012941692460396678
143.996552 0.0008199957359783795
144.988007 0.0021364631436933683
145.984924 0.0005794967418042943
146.486176 0.0003192906980317256
147.980865 0.00023473285743971412
150.950607 0.0025430852670754104
151.061386 0.0025464427644144114
152.014786 0.009139326723978172
152.946182 0.0005798981817035226
152.967377 0.0002820662710123679
157.01088 0.007798845911382069
166.031143 0.00028250420544788976
166.478058 0.0018627176269559156
167.038391 1.0
167.598663 0.001955413749141375
168.961975 0.0010665893177134772
170.955566 0.0002935985444811101
171.958969 0.00023608315528257317
178.945328 0.003195863037757028
184.977081 0.0003234875697054767
185.00618 0.002576733229538006
185.963715 0.00027619065066911635
196.955444 0.002055956196629934
212.094757 0.00019210723904892026
247.947113 0.00022148534076517804
END IONS

BEGIN IONS
CHARGE=1+
PRECURSORTYPE=M+H
FORMULA=C19H14O4
ONTOLOGY=
INCHIKEY=GZPDVRJCPPBBSD-UHFFFAOYSA-N
INCHI=InChI=1S/C19H14O4/c20-18(12-5-2-1-3-6-12)22-13-9-10-15-14-7-4-8-16(14)19(21)23-17(15)11-13/h1-3,5-6,9-11H,4,7-8H2
SMILES=O=C(Oc1ccc2c3c(c(=O)oc2c1)CCC3)c1ccccc1
IONMODE=positive
INSTRUMENTTYPE=LC-ESI-Orbitrap
INSTRUMENT=Orbitrap
COMMENT=DB#=CCMSLIB00010106435; origin=GNPS
NUM_PEAKS=21
COMPOUND_NAME="4-oxo-1,2,3-trihydrocyclopenta[1,2-c]chromen-7-yl benzoate "
PRECURSOR_MZ=307.096
COLLISION_ENERGY=102040
PARENT_MASS=306.0887235480092
50.105869 0.0006035195983996738
51.02359 0.0008925395385273322
53.038979 0.009379783692181023
57.06538 0.0005870327219533252
61.913891 0.0005982737740758356
65.788193 0.0006337455385513131
77.038834 0.001146587316496069
87.093918 0.0008892921234697181
87.280449 0.0007583963165320405
92.392357 0.0007718855790790531
95.048973 0.0038369457911502443
97.860588 0.0007066874767684923
105.033363 0.5047911862157722
125.456009 0.0006572268474294462
166.930557 0.0007491536736757541
201.054596 0.0007526508898916463
215.385727 0.0006794591505161891
229.048798 0.0015125460133733548
305.707123 0.0009072778068657349
307.095551 1.0
320.041718 0.0008245936234757133
END IONS

BEGIN IONS
CHARGE=1+
PRECURSORTYPE=M+H
FORMULA=C13H16O5
ONTOLOGY=
INCHIKEY=BDPRQDJNPJRLOB-UHFFFAOYSA-N
INCHI=InChI=1S/C13H16O5/c1-15-10-7-5-9(6-8-11(14)16-2)12(17-3)13(10)18-4/h5-8H,1-4H3/b8-6+
SMILES=COC(=O)C=Cc1ccc(OC)c(OC)c1OC
IONMODE=positive
INSTRUMENTTYPE=LC-ESI-Orbitrap
INSTRUMENT=Orbitrap
COMMENT=DB#=CCMSLIB00010111113; origin=GNPS
NUM_PEAKS=43
COMPOUND_NAME="methyl (2E)-3-(2,3,4-trimethoxyphenyl)prop-2-enoate "
PRECURSOR_MZ=253.107
COLLISION_ENERGY=102040
PARENT_MASS=252.09972354800925
69.290047 0.0007284247782444645
74.788391 0.0009527263105697418
84.943176 0.0007747444723314383
89.699341 0.0007379425236048017
94.715317 0.0009098964564482249
98.984398 0.003609129040639821
103.756897 0.0007147826765613147
105.069992 0.0012998067580433674
123.694252 0.0008946680638716855
129.911819 0.0007814068940836743
133.064621 0.0035485327285123417
135.043747 0.0011472055740992962
136.051804 0.0011196041125543185
148.678131 0.0007785515704755732
150.066956 0.0017588793425902924
160.051865 0.0009003787110878879
161.058945 0.0017433336918350752
162.06752 0.004432731272487656
163.038467 0.012507269178018957
165.091385 0.0012833093327521163
166.061234 0.0010577387677121275
167.069809 0.0037211211777131207
175.037491 0.0007620541451843222
176.045929 0.0008854675766900264
177.054245 0.01813384297687156
178.062515 0.01046920263819211
181.086578 0.0011868628464340339
190.062759 0.00576489836475617
191.033707 0.16498091533426162
193.085388 0.0063451635735580535
195.102005 0.000828043846349326
196.529617 0.0008299473954213934
199.840408 0.0009051375837680563
205.049423 0.005344214019829271
206.057205 0.1292186216591524
211.096405 0.04215758404089839
220.231674 0.00094542937246015
221.080673 1.0
222.084854 0.0036732151927327573
223.096725 0.0011129416908020825
242.778488 0.0008264575554559365
251.319412 0.0008340717517442062
253.107849 0.008155121482915488
END IONS

BEGIN IONS
CHARGE=1+
PRECURSORTYPE=M+H
FORMULA=C21H23N3O2
ONTOLOGY=
INCHIKEY=OAUXOLFBALGKAQ-UHFFFAOYSA-N
INCHI=InChI=1S/C21H23N3O2/c1-2-16-6-7-19-18(13-16)17(14-21(25)26-19)15-23-9-11-24(12-10-23)20-5-3-4-8-22-20/h3-8,13-14H,2,9-12,15H2,1H3
SMILES=CCc1ccc2oc(=O)cc(CN3CCN(c4ccccn4)CC3)c2c1
IONMODE=positive
INSTRUMENTTYPE=LC-ESI-Orbitrap
INSTRUMENT=Orbitrap
COMMENT=DB#=CCMSLIB00010104760; origin=GNPS
NUM_PEAKS=41
COMPOUND_NAME=6-ethyl-4-[(4-(2-pyridyl)piperazinyl)methyl]chromen-2-one
PRECURSOR_MZ=350.186
COLLISION_ENERGY=102040
PARENT_MASS=349.1787235480092
50.90929 0.0005574362119153321
52.930069 0.0004946626905208496
55.973309 0.0004805294707916824
61.457199 0.0005148530044196597
78.034027 0.0010253008494432155
92.882568 0.0005511955694375181
94.065247 0.0037598035445747984
95.060448 0.037625384143665466
96.044502 0.0059827571048338
105.044563 0.0006000194194110045
107.060837 0.0026676911109573386
118.646446 0.0006334252114981268
119.060547 0.005071256206456606
120.068329 0.0008349612538698867
121.075981 0.666342581537206
132.0681 0.0006102981246685806
142.053024 0.0005924939387759934
147.091507 0.05679828977028378
148.088379 0.000663710682346342
149.107422 0.0039093954157341645
159.080383 0.018062621910491933
161.094208 0.005531411815041307
162.103058 0.004965165284333766
163.110229 0.0022402071012270755
164.118286 0.003591306197673819
173.803024 0.0006451723032210709
175.075684 0.002495155701276597
185.09584 0.0006991355058233454
187.076096 0.0007949477226886082
187.111313 0.0007459403244069508
192.968826 0.000646457141378268
201.090576 0.0010276869774494383
202.122574 0.003155562514075861
208.259323 0.0006363619844288629
213.091293 0.0026827420722273605
228.102142 0.0008401006064986747
230.117279 0.02520852464420537
256.133636 0.008488558607984314
307.143738 0.004851365333267746
341.180237 0.00821286904911147
350.185699 1.0
END IONS

BEGIN IONS
CHARGE=1+
PRECURSORTYPE=M+H
FORMULA=C33H34N4O6
ONTOLOGY=
INCHIKEY=RCNSAJSGRJSBKK-YKSNQIBWSA-N
INCHI=InChI=1S/C33H34N4O6/c1-7-20-19(6)32(42)37-27(20)14-25-18(5)23(10-12-31(40)41)29(35-25)15-28-22(9-11-30(38)39)17(4)24(34-28)13-26-16(3)21(8-2)33(43)36-26/h7-8,13-15,34-35H,1-2,9-12H2,3-6H3,(H,37,42)(H,38,39)(H,40,41)/b24-13+,27-14-,28-15-
SMILES=C=CC1=C(C)C(/C=c2/[nH]/c(=C\c3[nH]c(/C=C4\N=C(O)C(C)=C4C=C)c(C)c3CCC(=O)O)c(CCC(=O)O)c2C)=NC1=O
IONMODE=positive
INSTRUMENTTYPE=LC-ESI-Orbitrap
INSTRUMENT=Orbitrap
COMMENT=DB#=CCMSLIB00010126686; origin=GNPS
NUM_PEAKS=58
COMPOUND_NAME=biliverdin
PRECURSOR_MZ=583.255
COLLISION_ENERGY=102040
PARENT_MASS=582.2477235480093
81.578003 0.0007670920839468601
87.929802 0.0008144431308503672
126.023003 0.0008725975097645041
136.235001 0.0013046325780805056
207.996002 0.006567870750541379
209.106995 0.003451502313911453
225.102005 0.004153197943414521
227.117004 0.007998991985072033
237.100998 0.0060974774484500865
238.110001 0.005713083793273451
239.117004 0.003938203096219582
240.126007 0.001071425789768833
241.132004 0.0011637409023134196
251.117004 0.005540828293941908
253.104004 0.0014054964142161124
253.132996 0.012543650585432988
255.110992 0.0018807234601161138
267.112 0.0018317369680900487
269.096985 0.00136174078452721
269.127991 0.014309248103122783
271.106995 0.00823085796458871
271.143005 0.004173942048911612
279.112 0.009942054513972013
283.108002 0.0011676053353053641
284.114014 0.0018828585059680169
285.122009 0.006542848013157075
287.140015 0.0010703924275765118
297.122986 0.3591044640700137
298.127991 0.0014463099507210921
299.138 0.030968669278186433
302.980011 0.0017903341589299436
330.158997 0.0039987828872214805
388.164001 0.0010595848254741783
390.183014 0.0016550064126529171
402.179993 0.0015537497280805604
420.207001 0.0010111491752779044
430.174988 0.0014339779258804998
436.187988 0.0014117478284704846
448.186005 0.0010569971499016716
450.201996 0.004887973973346975
451.209991 0.00980506997211391
465.227997 0.008742201446119504
474.520996 0.001110736253994073
477.187012 0.0013566636454913844
495.203003 0.0037217350673868295
505.221008 0.0021779602735263605
506.234985 0.0010351897915703333
509.213013 0.0021123289640388593
510.22699 0.003662628458022744
523.231018 0.008351786961640502
524.239014 0.003422837188303802
538.237976 0.0015829229946009644
539.26001 0.00391955560574906
555.255981 0.0016595327098589518
565.245972 0.009012626353721553
566.229004 0.0015925563214847511
568.229004 0.0013225755034198994
583.254028 1.0
END IONS

BEGIN IONS
CHARGE=1+
PRECURSORTYPE=M+H
FORMULA=C12H15NO3
ONTOLOGY=
INCHIKEY=XXANNZJIZQTCBP-UHFFFAOYSA-N
INCHI=InChI=1S/C12H15NO3/c1-13-4-3-8-5-10-12(16-7-15-10)11(14-2)9(8)6-13/h5H,3-4,6-7H2,1-2H3
SMILES=COc1c2c(cc3c1OCO3)CCN(C)C2
IONMODE=positive
INSTRUMENTTYPE=LC-ESI-Orbitrap
INSTRUMENT=Orbitrap
COMMENT=DB#=CCMSLIB00010106966; origin=GNPS
NUM_PEAKS=34
COMPOUND_NAME=Hydrocotarnine
PRECURSOR_MZ=222.112
COLLISION_ENERGY=102040
PARENT_MASS=221.10472354800925
65.749687 0.00046497323360888206
65.921028 0.0005096041722624396
66.986832 0.000645931403058761
66.997902 0.0005179217562842391
71.4953 0.000589534126032902
82.398804 0.0009530734081564258
82.507561 0.0004968234943752845
90.459557 0.0005461203947971686
93.069527 0.0009713315194237902
97.453079 0.0005806079383021904
121.064453 0.0021134778131489235
133.065643 0.0018201308254532677
135.080261 0.0013870078526107882
145.894485 0.0005536265072070851
147.183411 0.0006499887611181754
149.058731 0.0006104295200388858
151.07428 0.0007222097345757505
160.075699 0.004895405366586358
161.059128 0.0026348483237836648
163.074615 0.0020248245395507207
164.106873 0.010221296423276576
165.054504 0.01095040366655333
169.438599 0.0006305134424329866
175.074387 0.0013044406161017066
177.078766 0.001258998205836266
179.070023 0.1928360851688145
191.07048 0.013868049847078175
191.091949 0.0019134500608197972
192.101639 0.013509379394625948
193.085632 0.11031469680580429
195.101593 0.0008226293465462551
205.08522 0.009264571392866678
207.08876 0.003854490156443612
222.112106 1.0
END IONS

BEGIN IONS
CHARGE=1+
PRECURSORTYPE=M+H
FORMULA=C20H19Cl2NO4
ONTOLOGY=
INCHIKEY=PBGXFDRLZUDMGJ-UHFFFAOYSA-N
INCHI=InChI=1S/C20H19Cl2NO4/c1-3-26-20(25)18-12(2)23(16-8-7-13(24)11-14(16)18)9-10-27-17-6-4-5-15(21)19(17)22/h4-8,11,24H,3,9-10H2,1-2H3
SMILES=CCOC(=O)c1c(C)n(CCOc2cccc(Cl)c2Cl)c2ccc(O)cc12
IONMODE=positive
INSTRUMENTTYPE=LC-ESI-Orbitrap
INSTRUMENT=Orbitrap
COMMENT=DB#=CCMSLIB00010112544; origin=GNPS
NUM_PEAKS=68
COMPOUND_NAME="ethyl 1-[2-(2,3-dichlorophenoxy)ethyl]-5-hydroxy-2-methylindole-3-carboxylate "
PRECURSOR_MZ=408.076
COLLISION_ENERGY=102040
PARENT_MASS=407.06872354800925
63.59164 0.0006203837299350655
65.641159 0.0006789563852605257
66.754417 0.0007573910482742043
73.964783 0.000802992596537971
84.387543 0.0007237472393329365
104.303398 0.0006789563852605257
125.014977 0.0010014099998723156
129.069672 0.0011759119245616627
131.072861 0.007431430978611252
132.080963 0.0009418239768076605
133.052139 0.008054652138216063
135.453781 0.0008747390324729639
145.052139 0.0012717765126894923
145.08902 0.0007126001942017935
146.059753 0.004285734842602709
146.083618 0.0015265371623230685
146.096375 0.03176380911151362
147.067795 0.02381799266848708
147.080093 0.0011426734627160728
148.075592 0.0058076105133254815
154.018188 0.003957201021555751
156.080139 0.0027054891901023156
158.978012 0.0009373651587552034
159.067398 0.006466907564445628
159.103546 0.0008481887977060597
160.075638 0.13531073807017896
172.075394 0.005719650193563372
173.04715 0.05683351361145414
173.083374 0.055209895819716207
174.056274 0.005822405682317726
174.091263 0.13177023386298012
174.127533 0.0037782402788139463
175.09906 0.051235264873046305
176.070389 0.0032476409305715413
176.106812 0.003092392992926896
186.054276 0.006685794996111708
186.970856 0.002790409406646841
187.099335 0.00484247907851634
188.106873 0.013389425264433244
188.986588 0.010562737292723228
200.070572 0.02716960512910001
201.078323 0.07015808334057891
202.122696 0.024553089626499
203.130478 0.007867989800656379
204.065369 0.00808282376136568
208.052277 0.0014282404916211716
218.080627 0.014929136207365846
230.168762 0.0008445406738449584
232.097076 0.0008106941913558516
245.031189 0.0007225311980459027
246.112244 0.00842068056561323
248.10614 0.0008005605139639034
259.070831 0.0007734022585534824
283.07608 0.002801759125325823
301.085236 0.0011858429284057719
306.432037 0.0007255713012634872
318.044983 0.0011266622524367948
329.116394 0.0014300645535517222
334.0401 0.0010666708822764618
335.04715 0.043079681308006434
336.054779 0.09630884854469246
362.034027 0.5544151115018657
364.085815 0.04890492441999391
379.038055 0.003178934597854133
380.044495 0.044746265891886225
390.067108 0.0009290555432938059
408.075836 1.0
410.220062 0.001146321586577174
END IONS

BEGIN IONS
CHARGE=1+
PRECURSORTYPE=M+H
FORMULA=C25H21N3O3
ONTOLOGY=
INCHIKEY=RCNBNDFBTBRBPI-UHFFFAOYSA-N
INCHI=InChI=1S/C25H21N3O3/c29-23(27-19-11-5-2-6-12-19)17-28-22-14-8-7-13-20(22)21(15-24(28)30)25(31)26-16-18-9-3-1-4-10-18/h1-15H,16-17H2,(H,26,31)(H,27,29)
SMILES=O=c1cc(C(O)=NCc2ccccc2)c2ccccc2n1CC(O)=Nc1ccccc1
IONMODE=positive
INSTRUMENTTYPE=LC-ESI-Orbitrap
INSTRUMENT=Orbitrap
COMMENT=DB#=CCMSLIB00010112146; origin=GNPS
NUM_PEAKS=23
COMPOUND_NAME=2-{2-oxo-4-[N-benzylcarbamoyl]hydroquinolyl}-N-phenylacetamide
PRECURSOR_MZ=412.166
COLLISION_ENERGY=102040
PARENT_MASS=411.1587235480092
52.834202 0.0012105992491019452
56.108799 0.001317955210301423
65.03392 0.001234346189828097
73.954933 0.0011982310508070744
79.989197 0.0016687173139439562
91.054321 0.24700380396306756
108.654846 0.0012610614981450176
111.720428 0.0017068113646921581
180.080368 0.014363930771731048
199.04985 0.0016138025135147302
218.096527 0.03245563650953613
220.580536 0.0014381740977275662
225.325287 0.0015539404337675561
232.074905 0.0020778573135382793
233.106369 0.010184469203928338
261.102814 0.010829099699057
279.111694 0.01190711186243793
291.112061 0.18566496133948576
319.107056 1.0
332.138794 0.008055654913415191
344.769928 0.001328839224800909
412.164215 0.0061558996553230496
423.123993 0.0016034132269470388
END IONS

BEGIN IONS
CHARGE=1+
PRECURSORTYPE=M+H
FORMULA=C22H29N7O
ONTOLOGY=
INCHIKEY=NZPAMSHQYRPUFB-UHFFFAOYSA-N
INCHI=InChI=1S/C22H29N7O/c30-19-7-5-6-18-17-12-16(14-29(18)19)13-28(15-17)22-24-20(26-8-1-2-9-26)23-21(25-22)27-10-3-4-11-27/h5-7,16-17H,1-4,8-15H2
SMILES=O=c1cccc2n1CC1CC2CN(c2nc(N3CCCC3)nc(N3CCCC3)n2)C1
IONMODE=positive
INSTRUMENTTYPE=LC-ESI-Orbitrap
INSTRUMENT=Orbitrap
COMMENT=DB#=CCMSLIB00010103542; origin=GNPS
NUM_PEAKS=31
COMPOUND_NAME="3-(4,6-dipyrrolidin-1-yl-1,3,5-triazin-2-yl)-1,2,3,4,5,6-hexahydro-8H-1,5-methanopyrido[1,2-a][1,5]diazocin-8-one, 11-(4,6-dipyrrolidinyl-1,3,5-triazin-2-yl)-7,11-diazatricyclo[7.3.1.0<2,7>]tri deca-2,4-dien-6-one "
PRECURSOR_MZ=408.251
COLLISION_ENERGY=102040
PARENT_MASS=407.2437235480092
84.612343 9.051591983359891e-05
92.351173 0.00011883538897707949
99.114403 9.739402924344685e-05
102.050797 0.0006186079895091774
102.072029 0.0006576939925822066
104.253433 9.787091149586297e-05
104.436981 8.827824157226172e-05
112.567673 9.218500771705535e-05
122.071533 0.0005901601289900463
146.389084 8.613227143638915e-05
149.082031 0.00013242653317093903
160.07547 0.008033430032826373
162.091202 0.000704630211195009
174.093475 0.00010540931940905631
207.134659 0.00013321522304993492
212.353195 0.00011483691470682123
218.139923 0.00016822938535233418
235.166061 0.00019343077823001705
236.148911 0.001132668715988666
247.165359 0.0014708332578269767
249.181671 0.02125537565519036
259.166962 0.0021532884442846357
261.181671 0.043169747558344525
313.21582 0.0002313429172970989
354.205322 0.00016098444344062767
366.200653 0.0010901344873981663
406.131073 0.0010599625141203002
406.235107 0.0024414720577447184
407.244232 0.0001312893524151775
408.249817 1.0
410.387085 0.0010565326302279226
END IONS

BEGIN IONS
CHARGE=1+
PRECURSORTYPE=M+H
FORMULA=C20H22N2O2
ONTOLOGY=
INCHIKEY=XIMRYFKXRPRILH-UHFFFAOYSA-N
INCHI=InChI=1S/C20H22N2O2/c1-3-24-19-11-7-5-9-17(19)20(23)21-13-12-15-14(2)22-18-10-6-4-8-16(15)18/h4-11,22H,3,12-13H2,1-2H3,(H,21,23)
SMILES=CCOc1ccccc1C(O)=NCCc1c(C)[nH]c2ccccc12
IONMODE=positive
INSTRUMENTTYPE=LC-ESI-Orbitrap
INSTRUMENT=Orbitrap
COMMENT=DB#=CCMSLIB00010104660; origin=GNPS
NUM_PEAKS=36
COMPOUND_NAME=(2-ethoxyphenyl)-N-[2-(2-methylindol-3-yl)ethyl]carboxamide
PRECURSOR_MZ=323.175
COLLISION_ENERGY=102040
PARENT_MASS=322.16772354800923
50.620972 0.00048354092756484825
53.686211 0.00048402146513261456
55.018372 0.0033787797733568587
65.038986 0.0005223443361619777
77.038673 0.0007955299434371242
79.054428 0.000499518801693078
91.054031 0.003633104281097178
93.069893 0.018940628502292944
103.054176 0.005206984949923781
105.069504 0.002181400288875159
107.048576 0.0020724383953841484
119.048943 0.0010851739624082668
120.020287 0.0005828920697005326
121.028282 0.04017738563776525
121.064697 0.3577890514560829
122.068588 0.0006941365166384331
131.049026 0.04650798755551861
132.081284 0.0007604507009901837
143.072739 0.007101143907666628
148.590408 0.0006591774085834342
149.059586 0.8409218824915056
149.530777 0.0005840934136199483
150.062759 0.0010851739624082668
157.088394 0.001788680961618143
157.583633 0.0008910367850306782
158.096283 1.0
158.611526 0.0010500947199613263
166.085999 0.03477854606391077
186.126877 0.00412685663197706
192.101395 0.013029295612415698
200.1922 0.0005014409519641433
201.101517 0.0005908209395686767
295.810699 0.0005651121796931792
306.148895 0.0011147270228258949
321.678925 0.0005052852525062738
323.174683 0.6485146403578755
END IONS

BEGIN IONS
CHARGE=1+
PRECURSORTYPE=M+H
FORMULA=C20H18O7
ONTOLOGY=
INCHIKEY=BYNBJNABVGIMKZ-UHFFFAOYSA-N
INCHI=InChI=1S/C20H18O7/c1-23-16-8-11(9-17(24-2)19(16)25-3)7-15-18(21)13-10-12(20(22)26-4)5-6-14(13)27-15/h5-10H,1-4H3/b15-7+
SMILES=COC(=O)c1ccc2c(c1)C(=O)C(=Cc1cc(OC)c(OC)c(OC)c1)O2
IONMODE=positive
INSTRUMENTTYPE=LC-ESI-Orbitrap
INSTRUMENT=Orbitrap
COMMENT=DB#=CCMSLIB00010104458; origin=GNPS
NUM_PEAKS=111
COMPOUND_NAME="methyl 3-oxo-2-[(3,4,5-trimethoxyphenyl)methylene]benzo[b]furan-5-carboxylate "
PRECURSOR_MZ=371.113
COLLISION_ENERGY=102040
PARENT_MASS=370.1057235480092
59.028702 0.00031610855299709126
60.547821 0.0003798424993321234
67.015244 0.0003201473347586621
73.962891 0.0005077044194911214
75.044319 0.00042229896126473365
79.054649 0.0005472056752567286
87.43766 0.00038900363844983284
92.391411 0.00039993790126774403
99.814888 0.00034260690162788517
105.069527 0.001898325934810516
106.041054 0.0016803302265579257
107.04892 0.0007815535243000692
124.051758 0.0007169330161149362
131.04837 0.0007922907733735136
132.056458 0.0007220553734710748
133.064941 0.00041481243897499267
134.03624 0.003249741714981004
139.038971 0.0005424773453895237
139.074936 0.0007251090865103113
145.02832 0.00036831719528081155
147.044006 0.0007947534451793495
148.051804 0.0005179491342033986
151.039383 0.0005101670912969573
152.046753 0.0065125848439690544
154.062256 0.0005646413916420465
160.052261 0.0030052476580976193
161.059998 0.0013991916132037035
163.039307 0.003023471429460805
165.018127 0.0006119246903140951
165.054855 0.0007367328974338565
167.070099 0.04929835525045569
177.054184 0.005820869587145877
178.062225 0.017663956808282772
179.033646 0.01972639519223419
179.047302 0.0004192452482254972
181.049454 0.0004186542069920966
189.054855 0.0006100530597416598
193.085999 0.0005090835157023894
196.036148 0.0005286863832768429
205.049271 0.030033858782124077
217.050217 0.0029395435743179185
217.124069 0.000442098842583654
218.057907 0.0006921092843121107
223.07431 0.0005358773849498836
235.059006 0.0005573518830967723
239.068985 0.000800072816279955
247.890015 0.0003213294172254633
249.055634 0.0005224804503261366
250.062653 0.0012972370004420987
251.070358 0.001639843902069984
252.076447 0.0006996943134740852
253.051575 0.0005029760896239165
253.086014 0.0008036190636803586
254.059326 0.0005482892508512964
254.092346 0.0005888740822114714
265.049103 0.001352105328276122
265.086609 0.0004738180554428199
267.065063 0.0040689248644742455
268.071869 0.0018326218510308153
269.081085 0.001948170412160634
277.049316 0.0006911242155897764
278.058716 0.0006856078307447041
279.064453 0.0074466270064864806
280.071014 0.0028325651110724086
281.043732 0.007277195186244974
281.080139 0.005394137816630639
282.052063 0.0012939862736583954
282.088654 0.0027162284949647226
285.076691 0.0017092912469945554
292.073059 0.0014603643808606664
293.043915 0.0015379877961806127
293.080414 0.002078495004125468
295.059326 0.02217626110467971
296.067383 0.005178900300800585
297.074219 0.007005808753241861
306.051941 0.0007309209919720839
307.06012 0.011391925746307766
308.067108 0.009172861435505187
309.0383 0.010666718152925221
309.075439 0.03071660991357401
310.045288 0.0021990674157391916
310.08316 0.0094442478685083
311.05484 0.002539310152433474
311.091095 0.00196038526431758
312.065155 0.0005891696028281717
312.094604 0.00271012106888625
313.069916 0.01397625353935192
313.111084 0.000602172509962985
320.066254 0.0007244195384046773
321.075134 0.0015874382460417968
323.054749 0.02046834895389642
323.091583 0.0008764156422608667
324.062408 0.01241196440828498
325.069855 0.03515769374134617
326.041199 0.0006033545924297863
326.077393 0.0006895481056340415
327.086121 0.004552199579651475
328.055328 0.0004900716893613366
328.093018 0.0005492743195736308
337.070007 0.03327828112600448
338.077698 0.027432981834544706
339.085632 0.01739936734946377
340.05542 0.0036635690852336623
340.093933 0.012755457871762965
341.015533 0.0006433483825565607
341.064545 0.05083732811535864
355.080414 0.009578709749106937
356.088348 0.052446339366419556
369.261383 0.0005741965582486897
371.111877 1.0
372.975952 0.0007518044488855721
END IONS

BEGIN IONS
CHARGE=1+
PRECURSORTYPE=M+H
FORMULA=C20H18N4OS
ONTOLOGY=
INCHIKEY=PLJXLEGHOLUORM-UHFFFAOYSA-N
INCHI=InChI=1S/C20H18N4OS/c1-13-6-8-16(9-7-13)24-18-17(19(25)22-12-21-18)23-20(24)26-11-15-5-3-4-14(2)10-15/h3-10,12H,11H2,1-2H3,(H,21,22,25)
SMILES=Cc1ccc(-n2c(SCc3cccc(C)c3)nc3c(O)ncnc32)cc1
IONMODE=positive
INSTRUMENTTYPE=LC-ESI-Orbitrap
INSTRUMENT=Orbitrap
COMMENT=DB#=CCMSLIB00010109039; origin=GNPS
NUM_PEAKS=21
COMPOUND_NAME=9-(4-methylphenyl)-8-[(3-methylphenyl)methylthio]hydropurin-6-one
PRECURSOR_MZ=363.127
COLLISION_ENERGY=102040
PARENT_MASS=362.11972354800923
51.023411 0.0011890213027267603
53.039082 0.0013572676153284092
79.054428 0.013165173093985134
99.073486 0.0010340894465180478
103.047707 0.0011805484668403463
103.053841 0.009467385432128751
105.069862 1.0
109.863319 0.0012608386735735073
127.611732 0.001047403902910984
130.800659 0.001319341588027318
191.05896 0.001085329930212075
193.731079 0.001272942724839813
212.324432 0.0013669508563414537
259.065826 0.004512793780454298
271.064545 0.0023780426054535206
275.19812 0.0018373949822252007
334.460876 0.0013496017161930822
345.202423 0.0014641867348474426
353.667572 0.001255997053066985
363.126862 0.9189064877311319
363.212158 0.02706707944171274
END IONS

BEGIN IONS
CHARGE=1+
PRECURSORTYPE=M+H
FORMULA=C14H16N6O4
ONTOLOGY=
INCHIKEY=YXBXIPWDPVPYCY-UHFFFAOYSA-N
INCHI=InChI=1S/C14H16N6O4/c1-2-24-10-6-4-3-5-9(10)7-16-18-11(21)8-15-12-13(22)17-14(23)20-19-12/h3-7H,2,8H2,1H3,(H,15,19)(H,18,21)(H2,17,20,22,23)/b16-7+
SMILES=CCOc1ccccc1C=NN=C(O)CNc1nnc(O)nc1O
IONMODE=positive
INSTRUMENTTYPE=LC-ESI-Orbitrap
INSTRUMENT=Orbitrap
COMMENT=DB#=CCMSLIB00010110112; origin=GNPS
NUM_PEAKS=69
COMPOUND_NAME="N-[(1E)-2-(2-ethoxyphenyl)-1-azavinyl]-2-[(3,5-dioxo(2H,4H-1,2,4-triazin-6-yl) )amino]acetamide "
PRECURSOR_MZ=333.131
COLLISION_ENERGY=102040
PARENT_MASS=332.1237235480092
55.029579 0.0021268250476567966
56.013302 0.00041035302334761195
59.060822 0.03821410488773506
63.453232 0.00045362542732179306
65.038918 0.0010230793774826522
69.008728 0.0008940786260124518
69.992737 0.0004531899817472101
70.040367 0.002422601454192269
71.060783 0.006657418528405149
72.055779 0.00043560886667342333
73.950844 0.00041644926139177335
79.054413 0.00044148738193029323
85.158493 0.00041492520188073296
86.374771 0.0004663622103783445
91.054024 0.0007501638636127852
92.377373 0.00046788626988938486
93.033813 0.0033787310745827916
93.069946 0.0022539207247381965
95.04937 0.000611528878804937
100.568047 0.0004369152033971722
105.06974 0.006621222115017941
107.049042 0.01866297960383815
111.030037 0.0036355895328899117
111.044022 0.0010794151486943218
112.014168 0.0005154586989125727
113.045662 0.0005360879330084401
116.873131 0.00038438958096310326
120.044319 0.11642061995910513
121.054451 0.0006383087816417887
121.06469 0.00480731914339582
122.05983 0.011176091686549292
123.08007 0.000519867585355225
129.040726 0.0006177339782427442
130.024567 0.00358926900989365
131.048874 0.008817391870427073
132.043915 0.0005173637733013731
133.053345 0.0009425763768816283
133.064499 0.015122861513175549
135.080261 0.02073428534073562
135.091446 0.0009071964239467633
136.062454 0.0008657746636645598
137.070786 0.020018521677514885
139.024979 0.07771315523536759
141.040573 0.18669832428568148
148.0755 0.02778768718852714
148.088974 0.0008831380559510551
150.091248 0.1658934423311666
157.972092 0.00043773166384951525
165.102142 0.632476314754431
166.883469 0.0004421405502921677
167.019745 0.022894857420422594
169.035583 0.008792081596404438
170.205719 0.0004349556983115489
175.08699 0.00044426334746825954
177.065887 0.0027255082820115363
177.102112 0.021286865774881387
183.062286 0.00466503730190084
184.046463 0.013730415427052906
186.062973 0.0006548012827791181
205.096939 0.015187470750304294
212.064011 0.00048813448910749223
218.368591 0.0004616267397547549
227.088318 0.0230319683457194
276.108307 0.004656437251802826
301.091949 0.0017020478896511242
305.0979 0.0016536045694787705
331.556152 0.0005467019188888997
333.129913 1.0
334.717743 0.0005225346894995456
END IONS

BEGIN IONS
CHARGE=1+
PRECURSORTYPE=M+H
FORMULA=C19H18O5
ONTOLOGY=
INCHIKEY=VGUPMNBTSCIGOC-UHFFFAOYSA-N
INCHI=InChI=1S/C19H18O5/c1-3-22-15-10-9-12(11-16(15)23-4-2)19-18(21)17(20)13-7-5-6-8-14(13)24-19/h5-11,21H,3-4H2,1-2H3
SMILES=CCOc1ccc(-c2oc3ccccc3c(=O)c2O)cc1OCC
IONMODE=positive
INSTRUMENTTYPE=LC-ESI-Orbitrap
INSTRUMENT=Orbitrap
COMMENT=DB#=CCMSLIB00010110277; origin=GNPS
NUM_PEAKS=37
COMPOUND_NAME="2-(3,4-diethoxyphenyl)-3-hydroxychromen-4-one "
PRECURSOR_MZ=327.123
COLLISION_ENERGY=102040
PARENT_MASS=326.1157235480092
51.917542 0.0008850293463832781
58.468319 0.0007734011418701722
79.395103 0.0008280957635657055
97.795403 0.0008060260039341745
98.984291 0.014898367157638856
99.378258 0.0008482464136640599
104.287971 0.0009547569927553615
108.438911 0.000777879064114251
118.663101 0.001067024900446193
120.828117 0.0009166946536806922
121.028389 0.005503686289561644
133.028366 0.001572390410849366
174.992569 0.006413344208287355
197.05957 0.005219338227062643
215.069962 0.0015547985734619136
225.054077 0.0049871259735482735
242.0569 0.00469893969198292
243.06279 0.006035919333429289
250.999847 0.0021305314334148953
253.049133 0.015290185353995745
253.080322 0.0015567176829950904
255.063736 0.0074410273633034275
265.051727 0.001342417118457036
268.072174 0.0018506612931599737
269.044281 0.005046938220665611
270.051788 0.051317948471909035
271.05957 0.05847046970205824
279.065063 0.0011940059812247117
280.073181 0.001489548849333909
281.081665 0.0017905291944537735
282.089417 0.0012509395640422844
283.059662 0.049200530953637515
297.075165 0.007176190247725056
298.083252 0.00412800460586288
299.090912 0.12298677413680052
327.122253 1.0
328.658661 0.0013155495849925633
END IONS

BEGIN IONS
CHARGE=1+
PRECURSORTYPE=M+H
FORMULA=C20H20N2O3
ONTOLOGY=
INCHIKEY=YHEPCXKBZQIQES-UHFFFAOYSA-N
INCHI=InChI=1S/C20H20N2O3/c1-13-10-15(16-6-4-5-7-17(16)22-13)12-21-20(23)14-8-9-18(24-2)19(11-14)25-3/h4-11H,12H2,1-3H3,(H,21,23)
SMILES=COc1ccc(C(O)=NCc2cc(C)nc3ccccc23)cc1OC
IONMODE=positive
INSTRUMENTTYPE=LC-ESI-Orbitrap
INSTRUMENT=Orbitrap
COMMENT=DB#=CCMSLIB00010104680; origin=GNPS
NUM_PEAKS=49
COMPOUND_NAME="(3,4-dimethoxyphenyl)-N-[(2-methyl(4-quinolyl))methyl]carboxamide "
PRECURSOR_MZ=337.155
COLLISION_ENERGY=102040
PARENT_MASS=336.1477235480092
57.132038 0.00032048095776683854
57.134892 0.00021071180452068077
59.065479 0.0001509116556613662
67.078903 0.00014655820482440811
68.997498 0.00015287310054395173
79.018333 0.00023226377816957773
79.054413 0.0007253997257230292
94.041603 0.00022173895197033836
95.01313 0.0001862894237265367
97.028473 0.0001886096695022781
105.033852 0.00015098341583999738
109.028183 0.0003333977899204505
109.064758 0.00018085957021011094
111.008057 0.00020882211981672642
115.054047 0.0001771998010999209
121.028351 0.00017411411341878026
122.036293 0.0010854205419156466
124.051537 0.00013950178725900898
126.031151 0.0007024603886205962
129.069885 0.00033696187879246565
139.074875 0.0002664455432575619
144.08078 0.01021331526380142
150.031982 0.00018937511140767734
151.03952 0.0003286855381903365
155.070084 0.00120081090915458
156.080734 0.018095261924173604
157.076035 0.00036923003911695177
157.088394 0.00824627308728267
165.054565 0.3348435422393328
166.048203 0.0002512323853877523
166.087936 0.0001845432593798447
171.091537 0.010916612854506047
172.099289 0.021548768360918104
173.10817 0.0011662225030543525
174.091461 0.002701124883856151
199.087006 0.0018493076434445306
292.122925 0.0006826545793183912
293.128357 0.008022692290727466
305.132019 0.0003515531151141384
307.1091 0.0016679457519840014
319.14389 0.0002768746892186264
320.129761 0.0002818979017228088
321.122864 0.04580038384997951
322.130737 0.008474518295448902
322.173126 0.00029859410328432945
335.138977 0.0002746740437406036
335.557465 0.00030646380287421523
337.154144 1.0
338.763306 0.00027046411326090786
END IONS

BEGIN IONS
CHARGE=1+
PRECURSORTYPE=M+H
FORMULA=C20H22N2O4S
ONTOLOGY=
INCHIKEY=YLPJGUIDEISKHS-UHFFFAOYSA-N
INCHI=InChI=1S/C20H22N2O4S/c1-13-3-5-18-17(11-13)16(14(2)22-18)7-8-21-27(23,24)15-4-6-19-20(12-15)26-10-9-25-19/h3-6,11-12,21-22H,7-10H2,1-2H3
SMILES=Cc1ccc2[nH]c(C)c(CCNS(=O)(=O)c3ccc4c(c3)OCCO4)c2c1
IONMODE=positive
INSTRUMENTTYPE=LC-ESI-Orbitrap
INSTRUMENT=Orbitrap
COMMENT=DB#=CCMSLIB00010109375; origin=GNPS
NUM_PEAKS=13
COMPOUND_NAME="(2H,3H-benzo[3,4-e]1,4-dioxin-6-ylsulfonyl)[2-(2,5-dimethylindol-3-yl)ethyl]am ine "
PRECURSOR_MZ=387.137
COLLISION_ENERGY=102040
PARENT_MASS=386.1297235480092
51.86533 0.0005216649712080516
66.747421 0.0005072850143052096
131.085388 0.002366570729099409
135.914978 0.0003859808234020273
156.080917 0.001033078884029919
157.088531 0.021567087838044667
158.0961 0.008966401444260226
159.10025 0.0076911413058567005
160.111374 0.000853400610649853
172.111893 1.0
224.543198 0.0004751080810374641
255.170624 0.0005551232867740702
387.136597 0.12463877477072155
END IONS

BEGIN IONS
CHARGE=1+
PRECURSORTYPE=M+H
FORMULA=C8H12N2O2
ONTOLOGY=
INCHIKEY=NHZMQXZHNVQTQA-UHFFFAOYSA-N
INCHI=InChI=1S/C8H12N2O2/c1-5-8(12)7(2-9)6(4-11)3-10-5/h3,11-12H,2,4,9H2,1H3
SMILES=Cc1ncc(CO)c(CN)c1O
IONMODE=positive
INSTRUMENTTYPE=LC-ESI-Orbitrap
INSTRUMENT=Orbitrap
COMMENT=DB#=CCMSLIB00010103152; origin=GNPS
NUM_PEAKS=15
COMPOUND_NAME=pyridoxamine
PRECURSOR_MZ=169.097
COLLISION_ENERGY=102040
PARENT_MASS=168.08972354800926
50.5093 0.0012615437256879411
51.6492 0.0010438517504682322
54.023899 0.00116060365941507
54.566799 0.001091764515199539
84.271103 0.001181232891514191
90.561699 0.0013400086442875666
92.395401 0.0016480874513758825
104.303001 0.001704779570667051
118.677002 0.0011846005618786919
124.075996 0.010734584353839505
134.059998 0.16087649474139173
136.231995 0.0016583795562599049
151.085999 0.0026031371560293905
152.070999 1.0
169.097 0.06563121308168851
END IONS

BEGIN IONS
CHARGE=1+
PRECURSORTYPE=M+H
FORMULA=C8H12N2O2
ONTOLOGY=
INCHIKEY=NHZMQXZHNVQTQA-UHFFFAOYSA-N
INCHI=InChI=1S/C8H12N2O2/c1-5-8(12)7(2-9)6(4-11)3-10-5/h3,11-12H,2,4,9H2,1H3
SMILES=Cc1ncc(CO)c(CN)c1O
IONMODE=positive
INSTRUMENTTYPE=LC-ESI-Orbitrap
INSTRUMENT=Orbitrap
COMMENT=DB#=CCMSLIB00010126767; origin=GNPS
NUM_PEAKS=15
COMPOUND_NAME=pyridoxamine
PRECURSOR_MZ=169.097
COLLISION_ENERGY=102040
PARENT_MASS=168.08972354800926
50.5093 0.0012615437256879411
51.6492 0.0010438517504682322
54.023899 0.00116060365941507
54.566799 0.001091764515199539
84.271103 0.001181232891514191
90.561699 0.0013400086442875666
92.395401 0.0016480874513758825
104.303001 0.001704779570667051
118.677002 0.0011846005618786919
124.075996 0.010734584353839505
134.059998 0.16087649474139173
136.231995 0.0016583795562599049
151.085999 0.0026031371560293905
152.070999 1.0
169.097 0.06563121308168851
END IONS

BEGIN IONS
CHARGE=1+
PRECURSORTYPE=M+H
FORMULA=C8H12N4O2S
ONTOLOGY=
INCHIKEY=WZVUIKDWCPCMPC-UHFFFAOYSA-N
INCHI=InChI=1S/C8H12N4O2S/c1-12(2)7(14)4-15-8-10-5(9)3-6(13)11-8/h3H,4H2,1-2H3,(H3,9,10,11,13)
SMILES=CN(C)C(=O)CSc1nc(N)cc(O)n1
IONMODE=positive
INSTRUMENTTYPE=LC-ESI-Orbitrap
INSTRUMENT=Orbitrap
COMMENT=DB#=CCMSLIB00010110036; origin=GNPS
NUM_PEAKS=17
COMPOUND_NAME="2-(6-amino-4-hydroxypyrimidin-2-ylthio)-N,N-dimethylacetamide "
PRECURSOR_MZ=229.075
COLLISION_ENERGY=102040
PARENT_MASS=228.06772354800924
68.013603 0.0006704019637275285
82.408997 0.0005022169558544749
86.060013 0.0006439038623944246
92.951134 0.00042973685514922016
97.039551 0.013863339003927019
117.011688 0.007033843063280271
126.995872 0.022226295655838918
138.996033 0.0036303957538195456
144.0224 0.006224404003146104
156.022308 0.15002476793118724
161.809921 0.00046402851569794285
183.371109 0.0007442849050915946
184.017227 1.0
184.665451 0.0007223070681035495
188.738144 0.0005142190370465279
229.075119 0.008152218810721569
229.233948 0.002529945192574172
END IONS

BEGIN IONS
CHARGE=1+
PRECURSORTYPE=M+H
FORMULA=C21H21NO2
ONTOLOGY=
INCHIKEY=IUEMWJYKAIDIHO-UHFFFAOYSA-N
INCHI=InChI=1S/C21H21NO2/c1-14-9-15(2)21-18(11-20(23)24-19(21)10-14)13-22-8-7-16-5-3-4-6-17(16)12-22/h3-6,9-11H,7-8,12-13H2,1-2H3
SMILES=Cc1cc(C)c2c(CN3CCc4ccccc4C3)cc(=O)oc2c1
IONMODE=positive
INSTRUMENTTYPE=LC-ESI-Orbitrap
INSTRUMENT=Orbitrap
COMMENT=DB#=CCMSLIB00010104164; origin=GNPS
NUM_PEAKS=50
COMPOUND_NAME="5,7-dimethyl-4-(2-1,2,3,4-tetrahydroisoquinolylmethyl)chromen-2-one "
PRECURSOR_MZ=320.165
COLLISION_ENERGY=102040
PARENT_MASS=319.15772354800924
54.115688 0.0007965194424893543
66.098106 0.0007638583201708029
71.105583 0.0007376705734469195
89.510132 0.0007500288359458308
91.054192 0.0013064448927420512
92.754761 0.0008356539404025733
96.413116 0.0007320799308878882
105.069809 0.013740328188372876
115.054153 0.0012252334534634914
117.070053 0.015178300303424768
119.085503 0.014249076661244725
128.06279 0.0011613824305524497
129.069397 0.0008886179225407646
130.065277 0.005944912750666758
130.076126 0.0009251042213470742
131.085159 0.006289767123255425
132.080765 0.1501640706468903
133.100708 0.0010124947918750897
134.096375 0.036335645701560906
135.080917 0.0008950912981354325
142.064926 0.0038784347142416615
143.085922 0.005929023556025301
144.08078 0.0010169084570532724
145.101257 0.003859897320493295
146.096512 0.009353145001259366
147.080612 0.006707594093456712
157.964386 0.0008771423930774899
159.080383 0.05297516342330933
160.075607 0.05710900222919516
161.095703 0.012169357629285081
162.090607 0.0057630697453256345
170.096527 0.004587269341857788
173.096451 0.008282095584687054
174.090729 0.0017066172022306076
175.074631 0.004717913831131993
187.075272 0.032093819220982214
188.106812 0.00938198094709016
189.090591 0.008509252219190851
198.091003 0.0048582683837982005
208.298065 0.0009436416150954411
208.317856 0.0017739991572841953
214.085938 0.005548859862011172
216.101761 0.05098783711574631
275.143372 0.0019523112304827726
277.145538 0.006339494417596282
278.154938 0.009889258198235946
292.168793 0.00394581666929525
302.15329 0.0017272143063954597
303.134186 0.0012240564760826426
320.164032 1.0
END IONS

BEGIN IONS
CHARGE=1+
PRECURSORTYPE=M+H
FORMULA=C23H30N2O7
ONTOLOGY=
INCHIKEY=FNGZRVCLYISIFJ-UHFFFAOYSA-N
INCHI=InChI=1S/C23H30N2O7/c1-8-25(9-2)23(27)15-10-16(20(31-6)17(13-15)28-3)24-22(26)14-11-18(29-4)21(32-7)19(12-14)30-5/h10-13H,8-9H2,1-7H3,(H,24,26)
SMILES=CCN(CC)C(=O)c1cc(N=C(O)c2cc(OC)c(OC)c(OC)c2)c(OC)c(OC)c1
IONMODE=positive
INSTRUMENTTYPE=LC-ESI-Orbitrap
INSTRUMENT=Orbitrap
COMMENT=DB#=CCMSLIB00010105279; origin=GNPS
NUM_PEAKS=39
COMPOUND_NAME="{4,5-dimethoxy-3-[(3,4,5-trimethoxyphenyl)carbonylamino]phenyl}-N,N-diethylcar boxamide "
PRECURSOR_MZ=447.213
COLLISION_ENERGY=102040
PARENT_MASS=446.20572354800925
55.96513 0.0008181162020650171
70.82193 0.0007388532304630792
72.044739 0.007877363106986151
75.044167 0.0011932772766568255
79.054352 0.005032051804850996
81.03392 0.0008764802551095307
81.069977 0.0032602312949581613
96.057083 0.0011586156556347563
100.075706 0.011240814670429151
109.064636 0.005028993426525519
111.080658 0.0012531705188640774
113.023003 0.0013553713279070905
113.059669 0.0013117894367690476
122.036301 0.0035245261552514394
124.051628 0.005428621527721141
128.046539 0.0050216023455722835
139.075348 0.016200229990050077
140.477448 0.0007273843117425416
141.018402 0.006772014207186781
143.070267 0.0008759705253886179
151.757629 0.0007531256626486372
152.046524 0.017967208067594238
156.041534 0.00977457712822353
180.066132 0.001289361329048885
182.724152 0.0007791218784151891
185.081497 0.001476687001484333
195.065094 1.0
206.044098 0.0018324783466814557
215.423355 0.0008624626877844292
279.135773 0.0011112107915898673
298.07077 0.0009516653889441662
300.085205 0.0012669332213287227
313.094055 0.0036435480450845745
316.079834 0.0032072194039832317
330.13269 0.001252151059422252
351.940765 0.0008642467418076239
374.122894 0.1626822793481984
432.187469 0.0009509007943627971
447.211914 0.5827852039734451
END IONS

BEGIN IONS
CHARGE=1+
PRECURSORTYPE=M+H
FORMULA=C15H17N5O5
ONTOLOGY=
INCHIKEY=CAGLGYNQQSIUGX-UHFFFAOYSA-N
INCHI=InChI=1S/C15H17N5O5/c21-5-9-11(22)12(23)15(25-9)20-7-19-10-13(17-6-18-14(10)20)16-4-8-2-1-3-24-8/h1-3,6-7,9,11-12,15,21-23H,4-5H2,(H,16,17,18)/t9-,11-,12-,15-/m1/s1
SMILES=OCC1OC(n2cnc3c(NCc4ccco4)ncnc32)C(O)C1O
IONMODE=positive
INSTRUMENTTYPE=LC-ESI-Orbitrap
INSTRUMENT=Orbitrap
COMMENT=DB#=CCMSLIB00010106183; origin=GNPS
NUM_PEAKS=35
COMPOUND_NAME=Kinetin riboside
PRECURSOR_MZ=348.13
COLLISION_ENERGY=102040
PARENT_MASS=347.1227235480092
53.039391 0.0006614456460696983
55.018261 0.0030952333658969965
57.033932 0.008666418677217052
59.049438 0.0005641158062576405
61.0289 0.0016425087623942057
66.736671 0.00035798962416958144
69.033958 0.0035094720533345855
71.013153 0.0026659166791564264
73.028709 0.005185296874068911
76.366081 0.00035591301348713493
80.567673 0.0003300908110880176
81.033653 0.18013622566076848
85.028526 0.0077201162179682805
97.028236 0.0024781188435264822
102.927391 0.0003846244133574822
103.038551 0.0012671839533972447
108.31366 0.00034056415192122605
110.110039 0.0003492317443349158
115.038712 0.004144734347321263
122.652298 0.0003521209418061457
133.049438 0.004117286971344578
136.061539 0.009790406780946465
148.061554 0.17155205882406052
149.068924 0.0003487803072300361
173.06958 0.0018127908383548188
188.092911 0.011648431617210226
215.269058 0.00035880221095836484
216.087677 1.0
216.911972 0.0005187915209277213
219.280731 0.00039013194603701424
258.098846 0.0021204903690408045
279.958832 0.00041324552580685353
280.102905 0.0035820631397992368
346.454041 0.0004809610915388046
348.129517 0.8584832255000568
END IONS

BEGIN IONS
CHARGE=1+
PRECURSORTYPE=M+H
FORMULA=C17H14O5
ONTOLOGY=
INCHIKEY=NAIAWYFLUAEJDT-UHFFFAOYSA-N
INCHI=InChI=1S/C17H14O5/c1-20-10-7-8-12(14(9-10)21-2)17-16(19)15(18)11-5-3-4-6-13(11)22-17/h3-9,19H,1-2H3
SMILES=COc1ccc(-c2oc3ccccc3c(=O)c2O)c(OC)c1
IONMODE=positive
INSTRUMENTTYPE=LC-ESI-Orbitrap
INSTRUMENT=Orbitrap
COMMENT=DB#=CCMSLIB00010103740; origin=GNPS
NUM_PEAKS=45
COMPOUND_NAME="2',4'-Dimethoxy-3-hydroxyflavone "
PRECURSOR_MZ=299.091
COLLISION_ENERGY=102040
PARENT_MASS=298.08372354800923
52.042889 0.0002955994199658566
58.775902 0.0002518682645324096
74.453369 0.0003002375728148585
82.50354 0.0002964276615460355
91.054489 0.0024554878127564443
105.033463 0.019592054579132354
107.049103 0.02170481602601076
109.065079 0.0006732775805274442
120.823593 0.00028499792773956637
121.028389 0.033650709985247364
133.028412 0.031115793804951757
137.059784 0.1247846986012325
138.06749 0.019001352684148747
149.059875 0.0005416699934370137
151.039276 0.003326963603420704
151.075241 0.0050130149881909315
164.046967 0.0013352910755644548
165.054779 0.01824268339670486
179.07132 0.00037560755661114023
195.081024 0.0006030426945282717
205.048676 0.0004480786948767957
208.035995 0.001385813811955369
211.075943 0.002280894487654728
213.090958 0.0003434717833001982
215.1064 0.0015498884689888132
223.073853 0.0005635355711537373
239.069992 0.01790186198646123
240.076859 0.0011028036640082322
241.05014 0.00038587775220535884
243.10141 0.05189894260053942
253.085678 0.0018457363614287233
255.064468 0.004904680989503528
256.073212 0.0019621043034438617
266.057159 0.0013633684651325204
267.064941 0.02625194512535105
270.088654 0.010908769852536556
271.060059 0.001414222498155506
271.095947 0.005262729824614876
281.079865 0.0011065307511190373
284.067444 0.024075823197588955
297.757538 0.0011010643566898564
298.085052 0.00046679695458883935
299.090851 1.0
300.433929 0.0008721383839284028
300.472443 0.00035084313336379054
END IONS

BEGIN IONS
CHARGE=1+
PRECURSORTYPE=M+H
FORMULA=C22H22ClFN2O2
ONTOLOGY=
INCHIKEY=OFSGMVBATZQJCH-UHFFFAOYSA-N
INCHI=InChI=1S/C22H22ClFN2O2/c1-15-2-5-19-17(11-22(27)28-21(19)10-15)14-26-8-6-25(7-9-26)13-16-3-4-18(24)12-20(16)23/h2-5,10-12H,6-9,13-14H2,1H3
SMILES=Cc1ccc2c(CN3CCN(Cc4ccc(F)cc4Cl)CC3)cc(=O)oc2c1
IONMODE=positive
INSTRUMENTTYPE=LC-ESI-Orbitrap
INSTRUMENT=Orbitrap
COMMENT=DB#=CCMSLIB00010106837; origin=GNPS
NUM_PEAKS=79
COMPOUND_NAME=4-({4-[(2-chloro-4-fluorophenyl)methyl]piperazinyl}methyl)-7-methylchromen-2-o ne
PRECURSOR_MZ=401.143
COLLISION_ENERGY=102040
PARENT_MASS=400.1357235480092
52.99733 0.00016892261167383225
53.766159 0.00018376994826204183
56.04995 0.0028060099832398163
56.06493 0.0003334274575530132
56.067581 0.00021392006121110545
57.05772 0.000452433870145012
58.065498 0.0008089521241710997
59.372028 0.00023309407563943744
68.049927 0.0003157563943744079
70.065407 0.0004875482766159003
71.060692 0.0004174560956059171
77.195824 0.0002184744589375501
82.400833 0.00023058915688989288
83.06057 0.07330184726371784
84.068283 0.005760493332361729
85.07621 0.008894920935655469
85.458809 0.00020362712234934052
86.083946 0.0009059607957443707
87.091766 0.0003663102091379436
97.075996 0.022258252568680317
98.083588 0.0008572742840486774
99.091476 0.0008303577934853895
104.287247 0.00024101872768345114
107.029182 0.0010946950375282372
108.037086 0.00026665998688333453
118.65451 0.00031229505210230997
125.014954 0.000424788675945493
142.012665 0.00021551410041536107
143.005722 0.520453299205713
145.064392 0.0033476645048458793
149.722061 0.00021109633462070975
157.970932 0.0002285396779129928
159.991348 0.0002240308241638126
161.059387 0.0004556219485535233
162.071762 0.00022799315018581944
163.099045 0.005185227355534504
172.031845 0.00023391386723019747
173.058807 0.0017356354295707936
174.067551 0.0011666545216060629
174.091537 0.0003394392625519201
175.075562 0.001065592436056256
184.032043 0.0009204893244917292
186.047821 0.01055504445092181
186.066544 0.00047566129854987975
187.074356 0.00034727282664140494
188.106262 0.0010984296436639218
191.097504 0.0004706970050280551
193.113464 0.005769374407928295
197.059937 0.00026069372586169203
200.067886 0.00028096079574437075
202.086395 0.0015884372950521024
203.093979 0.003496866574364206
207.067017 0.00043717663776142245
208.075653 0.0009594749690300955
213.080383 0.00028014100415361075
214.085907 0.0031042319463674122
215.09491 0.0015521387451723383
216.101562 0.026054434161626467
225.058029 0.0009630729432339867
226.06514 0.00047761968957225095
227.07399 0.00250450885374918
228.080261 0.00047242767616410407
228.102173 0.0011326787145667858
229.132965 0.00084347445893755
240.101166 0.0008428368432558479
252.093094 0.00032996611528091524
255.112137 0.0012182558478466808
257.127838 0.023632906434453108
258.135742 0.025066038767033446
271.143616 0.0004303905851490199
287.062805 0.0012842490709028638
315.057831 0.000956059170735262
358.101959 0.00034658966698243826
381.136017 0.007753133425635794
381.522156 0.0002511294906361583
399.074463 0.0003377541353931356
401.141907 1.0
403.223602 0.0003095624134664432
405.593689 0.0002217991692778547
END IONS

BEGIN IONS
CHARGE=1+
PRECURSORTYPE=M+H
FORMULA=C17H14N2O4
ONTOLOGY=
INCHIKEY=QFMIGYKAOSBQJF-UHFFFAOYSA-N
INCHI=InChI=1S/C17H14N2O4/c1-23-16-9-11(2-7-15(16)21)8-12(10-18)17(22)19-13-3-5-14(20)6-4-13/h2-9,20-21H,1H3,(H,19,22)/b12-8-
SMILES=COc1cc(C=C(C#N)C(=O)Nc2ccc(O)cc2)ccc1O
IONMODE=positive
INSTRUMENTTYPE=LC-ESI-Orbitrap
INSTRUMENT=Orbitrap
COMMENT=DB#=CCMSLIB00010109463; origin=GNPS
NUM_PEAKS=65
COMPOUND_NAME=(2Z)-2-cyano-3-(4-hydroxy-3-methoxyphenyl)-N-(4-hydroxyphenyl)prop-2-enamide
PRECURSOR_MZ=311.103
COLLISION_ENERGY=102040
PARENT_MASS=310.09572354800923
56.71748 0.0005431956678532675
60.542099 0.0004939818085669348
63.116581 0.0005081745694847161
82.39119 0.0005813502329179524
108.044128 0.008114204170422986
109.051598 0.0025593050044596605
110.060349 0.010095292408660828
114.034027 0.0028156963088315284
120.044373 0.0035913214769097606
125.059517 0.0006027315350798048
135.055038 0.006489409527692565
136.03923 0.0009409616166918666
136.192795 0.0008349767137344085
140.530792 0.00071037533217051
142.028778 0.009208337012084676
144.044342 0.00798997143199981
145.028198 0.00882513246730458
146.136017 0.0006928647829862343
147.043884 0.0007712014503895729
147.067612 0.0008117521958689481
148.075485 0.0022948035509919172
152.070602 0.012456820368123353
160.039108 0.002832469571734361
160.19281 0.0006215323352566061
161.046982 0.002740124464983602
162.05452 0.001302047573028667
170.023514 0.22144448759617208
172.039185 0.0007293604539176721
174.054855 0.002557646110326413
175.039001 0.001154221673599308
176.070419 0.0158319326429999
177.053925 0.0074193118501627835
187.050018 0.030492317384786576
187.068893 0.0012117300035518767
188.033844 0.006992238771636818
189.065567 0.0008969087613756361
202.049683 0.20353727839247998
203.053192 0.0025788430909179046
211.04985 0.011225183634972512
220.060394 0.003724770293850977
223.086029 0.001200486387759868
226.073227 0.0013121852593985107
236.071625 0.0007090850811779844
237.065079 0.0006773817710759274
240.088623 0.0022907484764439798
244.096573 0.03638470934608052
250.072952 0.003965125621601456
251.081299 0.033662095430281196
257.091339 0.005108656644119838
261.065216 0.0009625272404240796
266.080383 0.014122718721044234
267.075989 0.003023426718628146
268.08316 0.004817059919809057
269.090881 0.0031952144222044086
278.068207 0.003833704341934208
279.076416 0.027237935738496352
281.095276 0.0006296424843524811
283.107422 0.03726171137785719
293.091431 0.007822976089252929
294.07724 0.0010235376802135033
295.072571 0.00532210102259764
296.079437 0.004615412121834346
299.709412 0.0006578436846176829
311.102051 1.0
312.532196 0.0006392272060112425
END IONS

BEGIN IONS
CHARGE=1+
PRECURSORTYPE=M+H
FORMULA=C14H11ClO4
ONTOLOGY=
INCHIKEY=UDMLVGSGFGXFEF-UHFFFAOYSA-N
INCHI=InChI=1S/C14H11ClO4/c15-9-3-1-2-8(4-9)5-11(17)14-12(18)6-10(16)7-13(14)19/h1-4,6-7,16,18-19H,5H2
SMILES=O=C(Cc1cccc(Cl)c1)c1c(O)cc(O)cc1O
IONMODE=positive
INSTRUMENTTYPE=LC-ESI-Orbitrap
INSTRUMENT=Orbitrap
COMMENT=DB#=CCMSLIB00010107520; origin=GNPS
NUM_PEAKS=34
COMPOUND_NAME="2-(3-chlorophenyl)-1-(2,4,6-trihydroxyphenyl)ethan-1-one "
PRECURSOR_MZ=279.042
COLLISION_ENERGY=102040
PARENT_MASS=278.0347235480092
51.997681 0.0017887095131354004
60.539459 0.0018927638969392622
65.125893 0.0021419081961879458
68.99762 0.008855614283589231
80.948097 0.021295975366956578
82.404984 0.00196384329996021
85.384399 0.0017418117626885894
104.293877 0.002187340391933294
125.01516 0.6246069565485014
127.038872 0.046813481051476875
127.448433 0.0022313070329771792
134.07959 0.0019916888392880043
138.994339 0.03615670003978981
139.03923 0.01466360756548648
149.023895 0.055895523536442115
151.031067 0.0025412718523365706
153.018173 0.34682571843323406
165.045456 0.002372000284317612
166.04184 0.007195873584182561
167.025146 0.03863055637585909
175.823059 0.0019836282884299586
181.14592 0.002256954240252779
191.02562 0.030643283252886594
193.041565 0.03220922845139964
195.020477 0.2939345820347908
197.059082 0.010172415182853596
198.067368 0.01179258590532077
215.024979 0.0028974016447920413
226.062042 0.09325910787288658
233.035919 0.1367084081071555
237.030853 0.07098707307475574
261.030914 0.1612300693720318
279.041321 1.0
289.34903 0.002060569910256758
END IONS

BEGIN IONS
CHARGE=1+
PRECURSORTYPE=M+H
FORMULA=C12H9BrO4
ONTOLOGY=
INCHIKEY=RXGDNKCWEKUYQA-UHFFFAOYSA-N
INCHI=InChI=1S/C12H9BrO4/c1-2-16-11(14)9-6-7-5-8(13)3-4-10(7)17-12(9)15/h3-6H,2H2,1H3
SMILES=CCOC(=O)c1cc2cc(Br)ccc2oc1=O
IONMODE=positive
INSTRUMENTTYPE=LC-ESI-Orbitrap
INSTRUMENT=Orbitrap
COMMENT=DB#=CCMSLIB00010107663; origin=GNPS
NUM_PEAKS=19
COMPOUND_NAME=ethyl 6-bromo-2-oxochromene-3-carboxylate
PRECURSOR_MZ=296.976
COLLISION_ENERGY=102040
PARENT_MASS=295.9687235480092
50.993469 0.00028779733376962344
74.096764 0.00040872556464295644
75.861313 0.00029362639064995565
89.610313 0.00036367387078818533
104.282547 0.00044300832290524936
118.041443 0.0003299838979713499
123.386673 0.0003034073505000046
166.948563 0.006020724174363491
206.94249 0.00044844218948860993
222.938141 0.010609081117353142
222.961838 0.0005814237244195791
232.926987 0.0012406999373425784
250.932709 0.025098140570374204
268.943512 1.0
270.947601 0.002055088341826961
279.19339 0.0010968506692448881
296.97467 0.15231839375694176
299.059174 0.0005328153178920629
309.967743 0.00038768168132921464
END IONS

BEGIN IONS
CHARGE=1+
PRECURSORTYPE=M+H
FORMULA=C10H10N2O
ONTOLOGY=
INCHIKEY=ZOAMBXDOGPRZLP-UHFFFAOYSA-N
INCHI=InChI=1S/C10H10N2O/c11-10(13)5-7-6-12-9-4-2-1-3-8(7)9/h1-4,6,12H,5H2,(H2,11,13)
SMILES=N=C(O)Cc1c[nH]c2ccccc12
IONMODE=positive
INSTRUMENTTYPE=LC-ESI-Orbitrap
INSTRUMENT=Orbitrap
COMMENT=DB#=CCMSLIB00010107176; origin=GNPS
NUM_PEAKS=11
COMPOUND_NAME=indole-3-acetamide
PRECURSOR_MZ=175.087
COLLISION_ENERGY=102040
PARENT_MASS=174.07972354800924
51.995651 0.001092645752807014
52.384491 0.0009614591546916618
53.113731 0.0009473280771802873
54.305241 0.0012205570474131586
92.363892 0.0011521864935757679
104.271713 0.0012524659321162621
118.640404 0.0011514155028871744
129.85759 0.001285235850216116
130.065369 1.0
158.060196 0.07599229765670155
175.086609 0.04949939743419701
END IONS

BEGIN IONS
CHARGE=1+
PRECURSORTYPE=M+H
FORMULA=C21H24N2O5
ONTOLOGY=
INCHIKEY=GSOQOOJRRSBXFX-UHFFFAOYSA-N
INCHI=InChI=1S/C21H24N2O5/c1-26-16-7-4-6-15(14-16)20(24)22-10-12-23(13-11-22)21(25)17-8-5-9-18(27-2)19(17)28-3/h4-9,14H,10-13H2,1-3H3
SMILES=COc1cccc(C(=O)N2CCN(C(=O)c3cccc(OC)c3OC)CC2)c1
IONMODE=positive
INSTRUMENTTYPE=LC-ESI-Orbitrap
INSTRUMENT=Orbitrap
COMMENT=DB#=CCMSLIB00010106934; origin=GNPS
NUM_PEAKS=31
COMPOUND_NAME="2,3-dimethoxyphenyl 4-[(3-methoxyphenyl)carbonyl]piperazinyl ketone "
PRECURSOR_MZ=385.176
COLLISION_ENERGY=102040
PARENT_MASS=384.1687235480092
53.039322 0.0003294296134503208
72.981216 0.00029640250661015457
75.36322 0.00032606379364495355
77.039017 0.0006520224054209894
79.054497 0.00047058368153791037
82.405457 0.0004386083933869214
85.341331 0.0003244860656111876
92.025909 0.0007075584322095492
92.387222 0.00047952414039591717
95.049347 0.0005290648006561666
105.032806 0.0003503608053649485
107.01297 0.0007154470723783787
107.04895 0.00044081721263419365
109.02858 0.004291630615581095
109.064728 0.0019044229186243643
121.028236 0.0019235660187673905
122.03627 0.01108017361740011
125.059433 0.0014300526898054157
125.922562 0.0003415255283758594
132.009506 0.00036477072140667706
135.044037 0.03947812122462829
137.023102 0.0018467832544574497
150.031006 0.005760285051279316
164.507385 0.0006098444759849808
165.054596 1.0
165.604843 0.0005495752650951233
168.041473 0.004734867011200397
169.687302 0.0003824412753848552
183.064682 0.002167482772787599
213.510315 0.0004182031108168824
385.175354 0.19955630080415745
END IONS

BEGIN IONS
CHARGE=1+
PRECURSORTYPE=M+H
FORMULA=C10H16N2O3S
ONTOLOGY=
INCHIKEY=YBJHBAHKTGYVGT-ZKWXMUAHSA-N
INCHI=InChI=1S/C10H16N2O3S/c13-8(14)4-2-1-3-7-9-6(5-16-7)11-10(15)12-9/h6-7,9H,1-5H2,(H,13,14)(H2,11,12,15)/t6-,7-,9-/m0/s1
SMILES=O=C(O)CCCC[C@@H]1SC[C@@H]2N=C(O)N[C@H]12
IONMODE=positive
INSTRUMENTTYPE=LC-ESI-Orbitrap
INSTRUMENT=Orbitrap
COMMENT=DB#=CCMSLIB00010102888; origin=GNPS
NUM_PEAKS=84
COMPOUND_NAME=biotin
PRECURSOR_MZ=245.095
COLLISION_ENERGY=102040
PARENT_MASS=244.08772354800925
54.621101 0.00023778537637749895
55.055302 0.000293800473077334
58.969101 0.00025103796904507976
59.432899 0.0002767737176021782
61.011299 0.0005656043497641928
61.040401 0.004160848023907652
67.055099 0.0017869652344244555
69.070801 0.0003013186675118199
76.0224 0.0022213609235441035
79.055 0.0014147205045069483
81.070602 0.00202804018753832
82.029701 0.001152162229294588
83.049698 0.0009933946464105703
85.011398 0.0018461999055589273
85.065598 0.0002825363104159622
91.054604 0.0005297680298926526
95.086304 0.00040218578105232427
97.011299 0.004063419700046941
97.040199 0.025642920979014234
97.0653 0.000429122561837361
98.097099 0.0017141698237753222
99.027702 0.00036621967117763293
99.056198 0.0004152696998758517
100.022003 0.0015151526050773585
101.042999 0.0003881992558877134
102.001999 0.0004331946568917098
104.304001 0.00031124862838223316
105.07 0.005111766934612622
107.085999 0.0004990011907787438
108.081001 0.0021218134303542194
111.027 0.0013834433149811974
112.022003 0.00048197443530358797
113.042 0.0023690223093704144
115.057999 0.002281873900948237
120.081001 0.0006665711031470092
121.065002 0.003200076920014073
122.097 0.001410292607124204
123.027 0.013221866841198082
124.077003 0.00037894490175297685
125.042 0.004474417037903657
126.091003 0.0004293524473625557
131.028 0.0018619284192038892
132.080994 0.0005357415599512614
133.065002 0.0015946992226031455
133.089005 0.0011608965120572569
137.042007 0.00038926468831743555
138.037003 0.0005318920597019382
139.057999 0.011379647668851524
139.069 0.0006032390472774623
141.011993 0.0005043768817834805
143.028 0.0037562713802799202
143.052994 0.0003594961842217617
145.723007 0.0003798635324942926
149.042007 0.004441701146264522
150.091995 0.0037464629314123265
151.074997 0.0004528976003090332
151.087006 0.0028882430974183308
153.102005 0.0013988753393392795
154.069 0.00046252571777237277
155.026993 0.0007057708752565945
156.048004 0.000494053222023932
156.085007 0.001706402776555097
163.087006 0.001147350353982934
164.052994 0.0014842885563611942
165.102005 0.0010593708034614705
166.069 0.025640004690946565
167.052994 0.021992117156701567
181.097 0.0011212058314562807
182.063004 0.002060323496447417
183.059006 0.00037430849736546425
184.042999 0.0006240613440806195
184.059998 0.0002703909389141081
184.078995 0.018248380954632513
185.076004 0.0025159060183786806
192.048004 0.007332082854932477
193.097 0.0018361241302851305
199.089996 0.021875854472403828
209.074005 0.02826223371179235
209.341003 0.0008944790156353479
210.057999 0.0023288309993178217
226.203003 0.0006380060615241906
227.085007 1.0
227.970993 0.0005060537474223902
245.095001 0.2070452737002454
END IONS

BEGIN IONS
CHARGE=1+
PRECURSORTYPE=M+H
FORMULA=C10H16N2O3S
ONTOLOGY=
INCHIKEY=YBJHBAHKTGYVGT-ZKWXMUAHSA-N
INCHI=InChI=1S/C10H16N2O3S/c13-8(14)4-2-1-3-7-9-6(5-16-7)11-10(15)12-9/h6-7,9H,1-5H2,(H,13,14)(H2,11,12,15)/t6-,7-,9-/m0/s1
SMILES=O=C(O)CCCC[C@@H]1SC[C@@H]2N=C(O)N[C@H]12
IONMODE=positive
INSTRUMENTTYPE=LC-ESI-Orbitrap
INSTRUMENT=Orbitrap
COMMENT=DB#=CCMSLIB00010102958; origin=GNPS
NUM_PEAKS=31
COMPOUND_NAME=biotin
PRECURSOR_MZ=245.095
COLLISION_ENERGY=102040
PARENT_MASS=244.08772354800925
52.902901 0.0017624464694121448
56.555 0.001666373359988133
61.040501 0.0022022284892862336
67.054901 0.001692053375129552
68.6521 0.0015820659135069221
73.524597 0.001742114020548813
76.0224 0.0015424359465815813
91.054604 0.0017662454537295306
92.405098 0.001938448276325039
97.011803 0.002797822265551099
97.039902 0.021060409526237465
98.782402 0.0019056712295706186
105.07 0.0018553257874689298
113.667 0.001817633455115107
123.026001 0.012300597568536117
125.042 0.0023869343948058294
139.057999 0.007200600977959259
143.026993 0.0031350774797511594
149.042007 0.002827980199958192
166.067993 0.020589961006451947
167.052002 0.024377884024118536
183.753006 0.0016153998394885898
184.078995 0.016006361828977314
185.074005 0.002330498880789723
185.457993 0.0017929019146392738
192.048004 0.006303821995889326
199.089996 0.015469240371573418
209.074005 0.021720171555011856
227.084 1.0
245.095001 0.22316794159291992
245.209 0.0016552612037184031
END IONS

BEGIN IONS
CHARGE=1+
PRECURSORTYPE=M+H
FORMULA=C10H16N2O3S
ONTOLOGY=
INCHIKEY=YBJHBAHKTGYVGT-ZKWXMUAHSA-N
INCHI=InChI=1S/C10H16N2O3S/c13-8(14)4-2-1-3-7-9-6(5-16-7)11-10(15)12-9/h6-7,9H,1-5H2,(H,13,14)(H2,11,12,15)/t6-,7-,9-/m0/s1
SMILES=O=C(O)CCCC[C@@H]1SC[C@@H]2N=C(O)N[C@H]12
IONMODE=positive
INSTRUMENTTYPE=LC-ESI-Orbitrap
INSTRUMENT=Orbitrap
COMMENT=DB#=CCMSLIB00010126503; origin=GNPS
NUM_PEAKS=84
COMPOUND_NAME=biotin
PRECURSOR_MZ=245.095
COLLISION_ENERGY=102040
PARENT_MASS=244.08772354800925
54.621101 0.00023778537637749895
55.055302 0.000293800473077334
58.969101 0.00025103796904507976
59.432899 0.0002767737176021782
61.011299 0.0005656043497641928
61.040401 0.004160848023907652
67.055099 0.0017869652344244555
69.070801 0.0003013186675118199
76.0224 0.0022213609235441035
79.055 0.0014147205045069483
81.070602 0.00202804018753832
82.029701 0.001152162229294588
83.049698 0.0009933946464105703
85.011398 0.0018461999055589273
85.065598 0.0002825363104159622
91.054604 0.0005297680298926526
95.086304 0.00040218578105232427
97.011299 0.004063419700046941
97.040199 0.025642920979014234
97.0653 0.000429122561837361
98.097099 0.0017141698237753222
99.027702 0.00036621967117763293
99.056198 0.0004152696998758517
100.022003 0.0015151526050773585
101.042999 0.0003881992558877134
102.001999 0.0004331946568917098
104.304001 0.00031124862838223316
105.07 0.005111766934612622
107.085999 0.0004990011907787438
108.081001 0.0021218134303542194
111.027 0.0013834433149811974
112.022003 0.00048197443530358797
113.042 0.0023690223093704144
115.057999 0.002281873900948237
120.081001 0.0006665711031470092
121.065002 0.003200076920014073
122.097 0.001410292607124204
123.027 0.013221866841198082
124.077003 0.00037894490175297685
125.042 0.004474417037903657
126.091003 0.0004293524473625557
131.028 0.0018619284192038892
132.080994 0.0005357415599512614
133.065002 0.0015946992226031455
133.089005 0.0011608965120572569
137.042007 0.00038926468831743555
138.037003 0.0005318920597019382
139.057999 0.011379647668851524
139.069 0.0006032390472774623
141.011993 0.0005043768817834805
143.028 0.0037562713802799202
143.052994 0.0003594961842217617
145.723007 0.0003798635324942926
149.042007 0.004441701146264522
150.091995 0.0037464629314123265
151.074997 0.0004528976003090332
151.087006 0.0028882430974183308
153.102005 0.0013988753393392795
154.069 0.00046252571777237277
155.026993 0.0007057708752565945
156.048004 0.000494053222023932
156.085007 0.001706402776555097
163.087006 0.001147350353982934
164.052994 0.0014842885563611942
165.102005 0.0010593708034614705
166.069 0.025640004690946565
167.052994 0.021992117156701567
181.097 0.0011212058314562807
182.063004 0.002060323496447417
183.059006 0.00037430849736546425
184.042999 0.0006240613440806195
184.059998 0.0002703909389141081
184.078995 0.018248380954632513
185.076004 0.0025159060183786806
192.048004 0.007332082854932477
193.097 0.0018361241302851305
199.089996 0.021875854472403828
209.074005 0.02826223371179235
209.341003 0.0008944790156353479
210.057999 0.0023288309993178217
226.203003 0.0006380060615241906
227.085007 1.0
227.970993 0.0005060537474223902
245.095001 0.2070452737002454
END IONS

BEGIN IONS
CHARGE=1+
PRECURSORTYPE=M+H
FORMULA=C10H16N2O3S
ONTOLOGY=
INCHIKEY=YBJHBAHKTGYVGT-ZKWXMUAHSA-N
INCHI=InChI=1S/C10H16N2O3S/c13-8(14)4-2-1-3-7-9-6(5-16-7)11-10(15)12-9/h6-7,9H,1-5H2,(H,13,14)(H2,11,12,15)/t6-,7-,9-/m0/s1
SMILES=O=C(O)CCCC[C@@H]1SC[C@@H]2N=C(O)N[C@H]12
IONMODE=positive
INSTRUMENTTYPE=LC-ESI-Orbitrap
INSTRUMENT=Orbitrap
COMMENT=DB#=CCMSLIB00010126573; origin=GNPS
NUM_PEAKS=31
COMPOUND_NAME=biotin
PRECURSOR_MZ=245.095
COLLISION_ENERGY=102040
PARENT_MASS=244.08772354800925
52.902901 0.0017624464694121448
56.555 0.001666373359988133
61.040501 0.0022022284892862336
67.054901 0.001692053375129552
68.6521 0.0015820659135069221
73.524597 0.001742114020548813
76.0224 0.0015424359465815813
91.054604 0.0017662454537295306
92.405098 0.001938448276325039
97.011803 0.002797822265551099
97.039902 0.021060409526237465
98.782402 0.0019056712295706186
105.07 0.0018553257874689298
113.667 0.001817633455115107
123.026001 0.012300597568536117
125.042 0.0023869343948058294
139.057999 0.007200600977959259
143.026993 0.0031350774797511594
149.042007 0.002827980199958192
166.067993 0.020589961006451947
167.052002 0.024377884024118536
183.753006 0.0016153998394885898
184.078995 0.016006361828977314
185.074005 0.002330498880789723
185.457993 0.0017929019146392738
192.048004 0.006303821995889326
199.089996 0.015469240371573418
209.074005 0.021720171555011856
227.084 1.0
245.095001 0.22316794159291992
245.209 0.0016552612037184031
END IONS

BEGIN IONS
CHARGE=1+
PRECURSORTYPE=M+H
FORMULA=C14H12BrN5O2S
ONTOLOGY=
INCHIKEY=LZSKSTYJGTWFCN-UHFFFAOYSA-N
INCHI=InChI=1S/C14H12BrN5O2S/c1-20-12-11(13(22)17-7-16-12)19-14(20)23-6-10(21)18-9-4-2-8(15)3-5-9/h2-5,7H,6H2,1H3,(H,18,21)(H,16,17,22)
SMILES=Cn1c(SCC(=O)Nc2ccc(Br)cc2)nc2c(O)ncnc21
IONMODE=positive
INSTRUMENTTYPE=LC-ESI-Orbitrap
INSTRUMENT=Orbitrap
COMMENT=DB#=CCMSLIB00010113915; origin=GNPS
NUM_PEAKS=22
COMPOUND_NAME=N-(4-bromophenyl)-2-(9-methyl-6-oxohydropurin-8-ylthio)acetamide
PRECURSOR_MZ=393.997
COLLISION_ENERGY=102040
PARENT_MASS=392.98972354800924
73.946823 0.0010650987314136775
76.915298 0.00102571878522803
92.374283 0.0011486431032280884
105.057983 0.0012837126382760564
133.052155 0.005770818282158419
136.201859 0.0011096311939226807
149.045975 0.001031975412192105
150.054245 0.0015792462531085314
151.061813 0.005837800994362043
175.245178 0.0012494852084137648
181.01767 0.051050027621167865
195.033386 0.253491657892054
213.043945 0.0022803565099651507
219.803787 0.0010603142519705615
223.028229 1.0
236.059479 0.0015365539750007268
258.865692 0.001042648481719056
274.86911 0.001200904340222125
375.98468 0.004890474064625068
377.146851 0.001259054167299997
393.519257 0.0043652854365230235
393.995636 0.14834168102317197
END IONS

BEGIN IONS
CHARGE=1+
PRECURSORTYPE=M+H
FORMULA=C15H16O5
ONTOLOGY=
INCHIKEY=QJZRVRVZRIXGMR-UHFFFAOYSA-N
INCHI=InChI=1S/C15H16O5/c1-9(2)6-7-19-15-11(18-3)8-10-4-5-12(16)20-14(10)13(15)17/h4-6,8,17H,7H2,1-3H3
SMILES=COc1cc2ccc(=O)oc2c(O)c1OCC=C(C)C
IONMODE=positive
INSTRUMENTTYPE=LC-ESI-Orbitrap
INSTRUMENT=Orbitrap
COMMENT=DB#=CCMSLIB00010110240; origin=GNPS
NUM_PEAKS=29
COMPOUND_NAME=Capensine
PRECURSOR_MZ=277.107
COLLISION_ENERGY=102040
PARENT_MASS=276.09972354800925
62.505981 0.0005950780997008885
69.07019 0.01472830581608991
77.306412 0.0006687871954524436
82.237007 0.0006405320420810142
86.402412 0.0007127669559175381
107.049057 0.0054055793854332155
122.221786 0.0006135053736387772
135.043549 0.003682260726761856
149.02327 0.029632530674040196
153.053864 0.006279769261046659
163.038864 0.023998698788762998
165.054459 0.0007967953250743111
165.169983 0.0006655931346365429
177.017334 0.003518626534193404
181.049316 0.016084307480932685
183.40358 0.0007923727793292178
193.050552 0.0009191524240218926
194.020615 0.018206883741591635
208.265274 0.0008899144827071091
209.044281 1.0
209.827774 0.0013454366944517199
212.946335 0.0012017039577361874
215.042755 0.000681317741730208
221.043976 0.012625876708269718
230.955887 0.0015405201012075023
235.060059 0.004770452677040649
277.106842 0.0415247561825961
277.140442 0.004207806579470444
277.175201 0.009154669692343149
END IONS

BEGIN IONS
CHARGE=1+
PRECURSORTYPE=M+H
FORMULA=C17H12N2O5
ONTOLOGY=
INCHIKEY=WFISTBAHXWQBCX-UHFFFAOYSA-N
INCHI=InChI=1S/C17H12N2O5/c1-10-8-12(19(22)23)6-7-14(10)18-16(20)13-9-11-4-2-3-5-15(11)24-17(13)21/h2-9H,1H3,(H,18,20)
SMILES=Cc1cc([N+](=O)[O-])ccc1NC(=O)c1cc2ccccc2oc1=O
IONMODE=positive
INSTRUMENTTYPE=LC-ESI-Orbitrap
INSTRUMENT=Orbitrap
COMMENT=DB#=CCMSLIB00010114584; origin=GNPS
NUM_PEAKS=24
COMPOUND_NAME=N-(2-methyl-4-nitrophenyl)(2-oxochromen-3-yl)carboxamide
PRECURSOR_MZ=325.082
COLLISION_ENERGY=102040
PARENT_MASS=324.0747235480092
57.712009 0.0016424218695097832
58.005489 0.001913481713499784
67.683006 0.0015982491541928943
74.42083 0.0015159272756477828
76.404877 0.0016196662282859312
104.27494 0.0014597074561535604
109.101662 0.0018666318639212656
118.63665 0.0020774561870245995
137.095673 0.002828392347411713
145.027771 0.00183450625278171
173.023056 0.027710347458562982
187.852493 0.0015125808578207458
188.792847 0.0018318291185200801
191.033752 1.0
193.037277 0.0030981136242708993
249.372559 0.0016758860477801537
261.077942 0.002619575875004601
261.219727 0.006210282203415354
289.214844 0.009220050397052475
307.070709 0.019119423612993472
307.223785 0.00883655091407403
325.080383 0.0854394013927791
325.197174 0.003822947725607124
325.234924 0.0058689475850575755
END IONS

BEGIN IONS
CHARGE=1+
PRECURSORTYPE=M+H
FORMULA=C43H58N4O12
ONTOLOGY=
INCHIKEY=JQXXHWHPUNPDRT-UHFFFAOYSA-N
INCHI=InChI=1S/C43H58N4O12/c1-21-12-11-13-22(2)42(55)45-33-28(20-44-47-17-15-46(9)16-18-47)37(52)30-31(38(33)53)36(51)26(6)40-32(30)41(54)43(8,59-40)57-19-14-29(56-10)23(3)39(58-27(7)48)25(5)35(50)24(4)34(21)49/h11-14,19-21,23-25,29,34-35,39,49-53H,15-18H2,1-10H3,(H,45,55)/b12-11+,19-14+,22-13+,44-20+
SMILES=COC1C=COC2(C)Oc3c(C)c(O)c4c(O)c(c(C=NN5CCN(C)CC5)c(O)c4c3C2=O)N=C(O)C(C)=CC=CC(C)C(O)C(C)C(O)C(C)C(OC(C)=O)C1C
IONMODE=positive
INSTRUMENTTYPE=LC-ESI-Orbitrap
INSTRUMENT=Orbitrap
COMMENT=DB#=CCMSLIB00010108385; origin=GNPS
NUM_PEAKS=250
COMPOUND_NAME=Rifampicin
PRECURSOR_MZ=823.412
COLLISION_ENERGY=102040
PARENT_MASS=822.4047235480093
58.06554 0.021876161366411576
59.04948 0.0018636217693472584
65.038673 0.007220760111946242
67.054527 0.057067175329354035
69.029457 0.0011687612344424305
69.033798 0.0316315128164289
69.07019 0.03402199991404308
70.065407 0.008428328365529255
71.0494 0.007417702573903986
72.081337 0.0011897448343686085
73.065224 0.0008500886114671581
75.776443 0.0008461699873845586
77.038963 0.0008862410788098506
79.054443 0.029490427180587895
81.033684 0.001837961101967655
81.070053 0.047066720263331537
83.049263 0.016528629973176386
83.085793 0.008317090004474816
84.068466 0.001142847752605885
85.028671 0.0036229575752059805
85.064934 0.02366634053601721
85.076462 0.0011610503935057023
87.043663 0.0009074774931929708
91.054169 0.04157609588746723
93.06987 0.0925945589272577
94.077713 0.0013807461565882183
95.049133 0.1140193200807995
95.085518 0.29343377651707636
97.02832 0.008556126073513387
97.064713 0.058415182013768274
97.0756 0.016247247482600046
97.101044 0.00661033960566001
98.083977 0.010613530124106617
99.043907 0.006320740645233057
99.08017 0.004014440761780522
99.091713 0.040263230412567914
100.099602 0.010564104897774474
101.107193 0.13877592296237867
103.053917 0.001631411690646118
105.069763 0.07117599172791098
107.049294 0.0030277059363362636
107.085373 0.23782824797053195
108.056503 0.003131486270910916
109.028397 0.0013164048772965034
109.064682 0.11949793576995907
109.101028 0.07523353735460009
111.043983 0.00731872571401123
111.080254 0.05955765054468875
113.059189 0.006855948850579071
113.095886 0.0016589684664527857
114.102341 0.004682250149792566
115.039322 0.0009113961172755703
115.054222 0.003369890303807133
116.117317 0.0008736003559627553
117.069641 0.01278293097912511
119.085403 0.07344373740667987
120.057289 0.0008681648451385044
121.064636 0.04833635446609379
121.101044 0.08366275057072864
123.080254 0.2826042164395129
123.116158 0.015919852760860276
125.059837 0.006452077755614377
125.095901 0.060047731369470635
127.074982 0.0018442814633912025
128.061829 0.0015033611682050427
129.069534 0.003855167653907121
130.077698 0.006915613062417361
131.085281 0.018177359454123024
133.064713 0.017111746518112893
133.101028 0.06863052936819139
135.080246 0.10060726032557446
135.116592 0.04662505340705403
137.059509 0.011931831109830185
137.095947 0.09071425140375228
137.132385 0.011047991768361283
139.07518 0.03003385185578452
139.111603 0.006420728762953581
141.090927 0.005295578022333629
142.07753 0.004413761196520261
143.085251 0.015617992299271641
144.093185 0.001987880074934205
145.100983 0.10674053905098509
146.072708 0.001065486528781662
147.080414 0.015919473539174864
147.116577 0.07880277185770591
149.060013 0.008955067286567715
149.09584 0.022331985832277832
149.132385 0.013927422025701118
151.075195 0.496803540413655
151.111435 0.01807459037737614
153.090714 0.06304737490108635
153.126236 0.001135010504440686
155.085205 0.005071963635168514
155.106476 0.02022604140595176
156.093262 0.0035107079563237746
157.101059 0.03349298566289215
158.072449 0.0017879038394931575
158.108826 0.0047769291639173095
159.080521 0.009385357492282838
159.116577 0.06196747794825899
160.088058 0.0036847707099282767
161.095871 0.11412714544668523
161.131195 0.011512917554677447
163.111511 0.3316361898838823
165.090973 0.0049488429946378054
165.12706 0.0420636485676797
167.069412 0.001609796054577585
167.085327 0.0013382733278219782
169.085907 0.002561516077735389
169.101074 0.004596419641660789
170.108612 0.007550430163798486
171.080093 0.0034296809228738937
171.101166 0.0016376056448411946
171.116653 0.0233051950842757
172.087433 0.0020327546410413935
172.123947 0.0017848700660098547
173.095901 0.07693409379921981
173.132202 0.05782953732426235
174.103348 0.0013645660313439363
174.138306 0.0012197033475162243
175.074997 0.0035855410355785785
175.111481 0.07545032575142777
175.147644 0.019087491499113884
176.119385 0.0031931729984047406
177.090637 0.0217411584464046
177.127182 0.028975444131797232
177.163666 0.00094716936293285
179.106369 0.22211317491979463
181.101425 0.003879690656230486
181.12204 0.01773632463398787
183.116699 0.013687880327748663
183.137589 0.005871994984161175
184.124542 0.0010860909070224273
185.095398 0.0069315403732047014
185.132202 0.03338200011629465
186.103699 0.005412631115897732
187.111374 0.007939890834717493
187.147736 0.014357206602502358
189.091049 0.012853339805383432
189.127304 0.011550207687076378
189.163208 0.003313386272680617
191.106308 0.1364011103610949
191.141861 0.007369415012628082
193.102768 0.002237534351164337
193.121933 0.03397636690456507
195.116669 0.008469789936467726
195.137695 0.005048578297901387
196.124115 0.001397305503517913
197.095596 0.0013080620002174205
197.132355 0.00903786402121619
198.139755 0.005049589555729155
199.112061 0.01072401004179023
199.147552 0.011250622555600219
200.155899 0.001563910230642629
201.091644 0.0010819194684828857
201.126968 0.04003076751940983
201.160126 0.0012649571353088255
203.1073 0.007620459768371395
203.142685 0.02154522724227462
205.121918 0.007182205907262601
207.100632 0.0042111304092813245
207.119186 0.0013644396241154653
207.13678 0.0011165550490839268
208.12439 0.0011821604006603513
209.115967 0.07114590680753488
210.139938 0.001298075829168215
211.111465 0.003200757432112998
211.130127 0.0021964520019112773
211.148239 0.004984363425838143
211.433456 0.001072944555261448
213.127243 0.016601440536775654
213.163712 0.0035941367271146033
215.10585 0.0016324229484738855
215.143326 0.007285859834608783
216.151077 0.0011572581766515736
217.121704 0.011796196153680853
217.158295 0.00567378844991872
219.137558 0.0380638710444018
221.114563 0.0012829069617517007
221.133148 0.0016627606833069142
221.15274 0.009508225318356605
222.139664 0.0017622431721135542
223.111374 0.005162724025210658
223.148926 0.007311267687531444
224.119232 0.001489077151387825
225.126999 0.003323878072643706
225.163895 0.007076150242575472
227.104919 0.0011719214151542042
227.143646 0.0069690833200605744
227.179321 0.0015428002234879798
229.122543 0.0031618240057439445
231.112808 0.001599051440157554
231.137482 0.027420508814376042
233.11702 0.0009716923652562148
233.154068 0.0015390080066338514
235.130463 0.0017571868829747161
236.154648 0.0010601774251858818
237.12529 0.006607432239405178
237.149017 0.004291904628274263
238.133636 0.0009106376739047446
239.142731 0.006658879981392856
241.122345 0.0031402083696754116
241.159042 0.005866685880565394
241.194351 0.004881341534634317
243.173904 0.0051399707240858865
245.114807 0.0009703018857430343
245.153 0.0009747261387395177
245.18718 0.0009378152280259994
246.139725 0.001620287854540674
247.133011 0.0009673945194882025
249.150543 0.0062909085393139125
251.146606 0.0011017654033528253
251.17868 0.01376334544314582
253.158981 0.01110740316574263
255.138016 0.004316933259511512
255.173828 0.005923442726148852
257.056213 0.0011711629717833785
257.152954 0.0038315295021830527
259.168304 0.0037439292928526826
261.158936 0.006560661564870926
261.189392 0.0014586130093263254
264.149902 0.004989040493291568
269.189331 0.021964899240798186
271.168915 0.019108475099040064
273.184387 0.0012970645713404475
277.179535 0.0016291363605336407
279.173798 0.036220474431609896
285.18515 0.001655176249598657
287.199951 0.010236836583263176
289.17923 0.017072686684515368
297.184143 0.07351983455821938
299.065186 0.02268175463345696
315.194672 0.06151557210647534
333.2052 0.022698061165929713
357.204895 0.003940745347581956
375.216125 0.00984320447380463
397.152557 0.0015043724260328103
398.155701 0.0050896606471544465
399.165405 0.2385142599994438
451.159393 0.002009369303774267
452.167511 0.001177736147663868
469.169769 0.0034782212986067397
686.554016 0.0009058341992228484
731.360779 0.005572030630999603
773.37085 0.0050019340305956055
785.655334 0.0009991227338344115
791.384705 1.0
797.17865 0.0011073273214055473
805.398987 0.0009687849990013829
823.40979 0.2467788910041032
END IONS

BEGIN IONS
CHARGE=1+
PRECURSORTYPE=M+H
FORMULA=C16H12O2
ONTOLOGY=
INCHIKEY=NOQJBXPAMJLUSS-UHFFFAOYSA-N
INCHI=InChI=1S/C16H12O2/c1-11-7-8-15-13(9-11)14(17)10-16(18-15)12-5-3-2-4-6-12/h2-10H,1H3
SMILES=Cc1ccc2oc(-c3ccccc3)cc(=O)c2c1
IONMODE=positive
INSTRUMENTTYPE=LC-ESI-Orbitrap
INSTRUMENT=Orbitrap
COMMENT=DB#=CCMSLIB00010104412; origin=GNPS
NUM_PEAKS=32
COMPOUND_NAME=6-Methylflavone
PRECURSOR_MZ=237.091
COLLISION_ENERGY=102040
PARENT_MASS=236.08372354800926
55.93475 0.00023238354702518368
56.237961 0.00014525183197903877
59.267521 0.0005810073279161551
59.276741 0.0005904409433382812
61.949921 0.00012338005923664348
77.039368 0.00015077631224336607
82.091293 0.00012864608428392625
91.055 0.00023461272327219296
92.367722 0.00014560720790247504
92.986069 0.00012215239695568183
95.812027 0.00014308726953629063
103.054527 0.0003099847259428107
129.033554 0.0006565085581952951
135.044098 0.0020474176156226875
166.077362 0.0002866914495066704
178.07756 0.000822889104167726
181.102142 0.00024440171461775537
183.911545 0.0008125185885838133
185.060867 0.00018731541855303977
194.020035 0.0001374658685655716
195.948105 0.000490063398418603
196.524506 0.0007123994988811797
201.923645 0.0003168014822923608
205.529907 0.001028716377641582
213.922638 0.0030299997370218166
222.066666 0.0007547215406722252
231.933533 0.0006612576728084888
236.083466 0.0009127669058949694
236.143738 0.0016927847509354303
237.090546 1.0
238.044189 0.0015093784675401893
282.14682 0.00046909621893586364
END IONS

BEGIN IONS
CHARGE=1+
PRECURSORTYPE=M+H
FORMULA=C16H12O2
ONTOLOGY=
INCHIKEY=NOQJBXPAMJLUSS-UHFFFAOYSA-N
INCHI=InChI=1S/C16H12O2/c1-11-7-8-15-13(9-11)14(17)10-16(18-15)12-5-3-2-4-6-12/h2-10H,1H3
SMILES=Cc1ccc2oc(-c3ccccc3)cc(=O)c2c1
IONMODE=positive
INSTRUMENTTYPE=LC-ESI-Orbitrap
INSTRUMENT=Orbitrap
COMMENT=DB#=CCMSLIB00010104413; origin=GNPS
NUM_PEAKS=41
COMPOUND_NAME=6-Methylflavone
PRECURSOR_MZ=237.091
COLLISION_ENERGY=102040
PARENT_MASS=236.08372354800926
55.934841 0.0022985022766166072
56.96524 0.0005997856387421301
68.070877 0.00024057336059437083
73.175827 0.00024555889915252603
82.395958 0.00027834515272141114
84.967247 0.0002897527409476985
88.480766 0.0002611915200552161
91.054367 0.0004777666950476195
92.378723 0.0002481784194118957
103.054047 0.0005832235106506314
109.06459 0.00030851188603092655
118.651817 0.00030927239191267904
129.033707 0.0013231957335958036
135.044434 0.004135630984970037
153.055496 0.0006291918661698929
165.070755 0.0003503397095273135
166.077789 0.0006250513341470183
178.077332 0.0022182266557649556
181.032074 0.00038785799969376963
181.53476 0.000635360413877441
183.911453 0.0029919146394678216
192.540741 0.0003228769971306958
193.043304 0.001497689583131236
193.543167 0.0003416361422139239
194.040512 0.0005021028832636992
195.040649 0.00028907673571947404
195.948898 0.00100065673907922
201.903442 0.0002512204429389057
201.922882 0.002400748067385553
203.045853 0.0010687642658228319
203.939484 0.0009694759979273679
213.922714 0.011423136346536505
219.932953 0.0003766194127745384
222.067032 0.0005156229878281878
225.040482 0.00031222991478616096
231.93396 0.002284137165516838
236.082825 0.0012137673872769732
236.125229 0.00033580559712048815
236.152679 0.0013925707701423363
237.09079 1.0
238.037247 0.0006393319445932594
END IONS

BEGIN IONS
CHARGE=1+
PRECURSORTYPE=M+H
FORMULA=C9H17NO5
ONTOLOGY=
INCHIKEY=GHOKWGTUZJEAQD-ZETCQYMHSA-N
INCHI=InChI=1S/C9H17NO5/c1-9(2,5-11)7(14)8(15)10-4-3-6(12)13/h7,11,14H,3-5H2,1-2H3,(H,10,15)(H,12,13)/t7-/m0/s1
SMILES=CC(C)(CO)[C@@H](O)C(O)=NCCC(=O)O
IONMODE=positive
INSTRUMENTTYPE=LC-ESI-Orbitrap
INSTRUMENT=Orbitrap
COMMENT=DB#=CCMSLIB00010103283; origin=GNPS
NUM_PEAKS=36
COMPOUND_NAME=pantothenic acid
PRECURSOR_MZ=220.118
COLLISION_ENERGY=102040
PARENT_MASS=219.11072354800925
55.000999 0.004090117673002905
55.5135 0.004080014564886827
57.070599 0.02385641278120104
59.049801 0.02307213978188569
67.054802 0.007377653668530869
69.070396 0.03764407827088125
70.029404 0.02019747217157847
72.044899 0.08648132335330877
73.028801 0.016965734052346408
73.979103 0.004484369671187423
82.4282 0.005316773467289264
83.735298 0.0044388543998523
85.065201 0.06314570784580709
86.096901 0.010094184558655723
87.080704 0.007052148961867177
90.055397 1.0
95.049698 0.03703712251172499
98.024002 0.07396885473320358
100.040001 0.02377702389103003
103.075996 0.06764569374248357
113.059998 0.02299672546470451
116.033997 0.14361542544598555
124.075996 0.09768859348836732
135.559006 0.004153556986401832
136.259003 0.0049771141523005085
142.085999 0.06459552950287066
143.393997 0.004951805097197542
153.983994 0.004745870931511697
156.102005 0.00818369707086792
160.095993 0.02661938206929091
166.085999 0.02746635075221999
174.113007 0.03407414245382444
184.095993 0.2570497385756669
202.106995 0.40795786439782655
205.992004 0.004236612740686037
220.117996 0.515055938909531
END IONS

BEGIN IONS
CHARGE=1+
PRECURSORTYPE=M+H
FORMULA=C9H17NO5
ONTOLOGY=
INCHIKEY=GHOKWGTUZJEAQD-ZETCQYMHSA-N
INCHI=InChI=1S/C9H17NO5/c1-9(2,5-11)7(14)8(15)10-4-3-6(12)13/h7,11,14H,3-5H2,1-2H3,(H,10,15)(H,12,13)/t7-/m0/s1
SMILES=CC(C)(CO)[C@@H](O)C(O)=NCCC(=O)O
IONMODE=positive
INSTRUMENTTYPE=LC-ESI-Orbitrap
INSTRUMENT=Orbitrap
COMMENT=DB#=CCMSLIB00010126898; origin=GNPS
NUM_PEAKS=36
COMPOUND_NAME=pantothenic acid
PRECURSOR_MZ=220.118
COLLISION_ENERGY=102040
PARENT_MASS=219.11072354800925
55.000999 0.004090117673002905
55.5135 0.004080014564886827
57.070599 0.02385641278120104
59.049801 0.02307213978188569
67.054802 0.007377653668530869
69.070396 0.03764407827088125
70.029404 0.02019747217157847
72.044899 0.08648132335330877
73.028801 0.016965734052346408
73.979103 0.004484369671187423
82.4282 0.005316773467289264
83.735298 0.0044388543998523
85.065201 0.06314570784580709
86.096901 0.010094184558655723
87.080704 0.007052148961867177
90.055397 1.0
95.049698 0.03703712251172499
98.024002 0.07396885473320358
100.040001 0.02377702389103003
103.075996 0.06764569374248357
113.059998 0.02299672546470451
116.033997 0.14361542544598555
124.075996 0.09768859348836732
135.559006 0.004153556986401832
136.259003 0.0049771141523005085
142.085999 0.06459552950287066
143.393997 0.004951805097197542
153.983994 0.004745870931511697
156.102005 0.00818369707086792
160.095993 0.02661938206929091
166.085999 0.02746635075221999
174.113007 0.03407414245382444
184.095993 0.2570497385756669
202.106995 0.40795786439782655
205.992004 0.004236612740686037
220.117996 0.515055938909531
END IONS

BEGIN IONS
CHARGE=1+
PRECURSORTYPE=M+H
FORMULA=C20H20O6
ONTOLOGY=
INCHIKEY=RKFPERKYILZGEX-UHFFFAOYSA-N
INCHI=InChI=1S/C20H20O6/c1-22-17-9-5-13(19(23-2)20(17)24-3)4-7-15(21)14-6-8-16-18(12-14)26-11-10-25-16/h4-9,12H,10-11H2,1-3H3/b7-4+
SMILES=COc1ccc(C=CC(=O)c2ccc3c(c2)OCCO3)c(OC)c1OC
IONMODE=positive
INSTRUMENTTYPE=LC-ESI-Orbitrap
INSTRUMENT=Orbitrap
COMMENT=DB#=CCMSLIB00010114331; origin=GNPS
NUM_PEAKS=33
COMPOUND_NAME="(2E)-1-(2H,3H-benzo[e]1,4-dioxin-6-yl)-3-(2,3,4-trimethoxyphenyl)prop-2-en-1-o ne "
PRECURSOR_MZ=357.133
COLLISION_ENERGY=102040
PARENT_MASS=356.1257235480092
50.054211 0.0019607198380647297
51.226528 0.001892660530113185
51.88213 0.0021977803489071895
53.397141 0.00177642440866785
54.843189 0.001979072909871888
73.871483 0.002209251018786663
90.97731 0.0027537254823990216
122.665993 0.002173309586497645
129.949524 0.0024868412298699304
149.05986 0.5838869206069055
149.229858 0.0020326027026427657
153.055267 0.002323193006256103
161.059647 0.021003561260641915
163.039017 0.7927188775873052
163.946091 0.002251310141678067
169.085403 0.005136565972028389
177.054703 0.002691783865049863
178.063034 0.005035624077089019
185.372223 0.002167191895895259
189.054672 0.4830184379547643
190.062164 0.01065013462742882
191.033859 0.05630493017038533
193.086243 0.010585134164778466
195.065216 0.1266698427677044
206.057205 0.05468603629472892
220.933685 0.004173029702152586
221.080872 0.19379467347973478
272.820831 0.002340016655412665
277.865234 0.002755254905049618
283.096466 0.002525076796134843
315.122375 0.9974252169677208
342.107239 0.0036354376404679114
357.132935 1.0
END IONS

BEGIN IONS
CHARGE=1+
PRECURSORTYPE=M+H
FORMULA=C20H20O6
ONTOLOGY=
INCHIKEY=RKFPERKYILZGEX-UHFFFAOYSA-N
INCHI=InChI=1S/C20H20O6/c1-22-17-9-5-13(19(23-2)20(17)24-3)4-7-15(21)14-6-8-16-18(12-14)26-11-10-25-16/h4-9,12H,10-11H2,1-3H3/b7-4+
SMILES=COc1ccc(C=CC(=O)c2ccc3c(c2)OCCO3)c(OC)c1OC
IONMODE=positive
INSTRUMENTTYPE=LC-ESI-Orbitrap
INSTRUMENT=Orbitrap
COMMENT=DB#=CCMSLIB00010114332; origin=GNPS
NUM_PEAKS=31
COMPOUND_NAME="(2E)-1-(2H,3H-benzo[e]1,4-dioxin-6-yl)-3-(2,3,4-trimethoxyphenyl)prop-2-en-1-o ne "
PRECURSOR_MZ=357.133
COLLISION_ENERGY=102040
PARENT_MASS=356.1257235480092
68.618629 0.0017466222403231934
69.901871 0.002003558845315964
82.390129 0.00260558317775913
82.409653 0.0017835227101891764
90.976952 0.004148569491784862
104.272507 0.002909670383136212
107.01297 0.0031679736721980925
121.065079 0.0022796290272762807
131.468948 0.0020910266257390345
147.044754 0.0023411298103862524
149.059799 0.5642936020051988
161.06015 0.019981604432429773
163.038971 0.8258653160183573
167.070358 0.002796235605400042
169.085632 0.007802399350551731
177.054337 0.004681576278737949
178.062317 0.0026096832299664615
189.054611 0.46863938400815636
190.062225 0.011324344196649438
191.03389 0.05541425560818808
191.068649 0.0076691476538134585
193.085358 0.008348389636161368
195.065231 0.12571238407102384
206.057281 0.05052494335094534
221.080841 0.21091556899157848
223.074509 0.002750451689084841
276.641907 0.0021832778004039917
304.460999 0.0020917099677735898
315.122314 1.0
342.111115 0.0023438631785244733
357.132812 0.9686530508488475
END IONS

BEGIN IONS
CHARGE=1+
PRECURSORTYPE=M+H
FORMULA=C19H18N2O3S
ONTOLOGY=
INCHIKEY=NITQAVSQRVIHHG-UHFFFAOYSA-N
INCHI=InChI=1S/C19H18N2O3S/c1-13-11-19(22)20-17-9-8-15(12-16(13)17)25(23,24)21-10-4-6-14-5-2-3-7-18(14)21/h2-3,5,7-9,11-12H,4,6,10H2,1H3,(H,20,22)
SMILES=Cc1cc(O)nc2ccc(S(=O)(=O)N3CCCc4ccccc43)cc12
IONMODE=positive
INSTRUMENTTYPE=LC-ESI-Orbitrap
INSTRUMENT=Orbitrap
COMMENT=DB#=CCMSLIB00010105969; origin=GNPS
NUM_PEAKS=36
COMPOUND_NAME="4-methyl-6-(1,2,3,4-tetrahydroquinolylsulfonyl)hydroquinolin-2-one "
PRECURSOR_MZ=355.111
COLLISION_ENERGY=102040
PARENT_MASS=354.1037235480092
53.68642 0.00037362894886979516
63.51852 0.0004357920667116894
72.405647 0.0003870239303294502
82.38797 0.0005932806351354005
84.61219 0.00041472423179456206
92.366524 0.00040718142670077574
104.274109 0.0005344987747493415
107.072693 0.002069719708062231
118.064621 0.001922114815278654
118.897949 0.0004321507125284822
132.080688 0.039088636673092356
133.088547 0.22244915661685424
135.067719 0.002471569151851882
148.07579 0.0009237335272614533
150.054718 0.0007251496759129752
150.091339 0.002987861155685188
152.529129 0.0004021095405170229
159.067062 0.009103905651472725
160.0755 0.0009792641785553629
162.055344 0.002057365113512064
175.062256 0.003506363981701155
176.069885 0.0025527193307919283
178.08609 0.0008117618861278321
184.996445 0.0004931433950972027
191.057495 0.2905844854642993
193.062363 0.0008183943526758166
207.035278 0.0006952385522652019
224.03746 0.016556067035769933
224.062515 0.000568311349307694
263.117035 0.0033356104801814746
291.14798 0.0018305607672437303
308.90036 0.000983165629465942
331.916656 0.0006426990133360696
353.382721 0.0006373670304249447
355.110626 1.0
356.848114 0.0008451843155951267
END IONS

BEGIN IONS
CHARGE=1+
PRECURSORTYPE=M+H
FORMULA=C23H19NO5
ONTOLOGY=
INCHIKEY=YMTGHURFTMANKP-UHFFFAOYSA-N
INCHI=InChI=1S/C23H19NO5/c1-28-23-14-8-17(7-13-22(25)18-5-3-2-4-6-18)15-19(23)16-29-21-11-9-20(10-12-21)24(26)27/h2-15H,16H2,1H3/b13-7+
SMILES=COc1ccc(C=CC(=O)c2ccccc2)cc1COc1ccc([N+](=O)[O-])cc1
IONMODE=positive
INSTRUMENTTYPE=LC-ESI-Orbitrap
INSTRUMENT=Orbitrap
COMMENT=DB#=CCMSLIB00010110853; origin=GNPS
NUM_PEAKS=63
COMPOUND_NAME=(2E)-3-{4-methoxy-3-[(4-nitrophenoxy)methyl]phenyl}-1-phenylprop-2-en-1-one
PRECURSOR_MZ=390.134
COLLISION_ENERGY=102040
PARENT_MASS=389.12672354800924
53.03883 0.0007003667844160048
55.018341 0.0038337360728296264
56.495739 0.00038207203022119947
68.57531 0.0003737892671008886
69.033493 0.0004905762270972726
77.039017 0.0006425057677612614
80.66098 0.0003921296711530056
91.054291 0.007243512999086766
105.033371 0.07565345676385819
107.048866 0.0006182491043374937
115.053802 0.00531670564692758
117.069862 0.0008535979021417569
119.084877 0.0006364711832021777
121.064339 0.0009159552759189548
131.048889 0.0020386246542833837
143.049011 0.0007965651617990446
145.064545 0.007031947563956539
147.079788 0.002590020027721225
152.034088 0.0006511435064438714
153.069427 0.0009483763772756004
165.069656 0.007511401223435108
167.084335 0.001897936006425531
173.058853 0.0041456412669030485
177.068344 0.0013981304147084835
178.077362 0.03847355301903166
178.42247 0.00045200221599411025
179.085297 0.023408153504685558
180.092911 0.0031610573822729465
181.064133 0.00151266919614364
181.100388 0.0005297418641375999
190.07753 0.0018281241458400531
191.067337 0.0006705488371828855
191.085388 0.010194898149228413
192.092422 0.0021778933998920402
193.100891 0.02351701267712393
193.680328 0.00044123462393770606
195.080399 0.003678020126167781
195.115936 0.006515103145249137
197.095642 0.0020806300958221033
202.076935 0.0025105055017662402
203.085281 0.01576280816907628
204.093613 0.0005876028807923434
205.101288 0.004758565737806057
206.072403 0.002457850793358549
208.026764 0.0020947107931266317
208.087906 0.010753038058349935
209.095764 0.002115536026114842
218.070892 0.0014415557584963993
219.079987 0.004409506434878668
220.08815 0.0032508661995346035
221.095673 0.10063935831777554
222.104462 0.0008401088307743934
223.111191 0.023602088486888266
233.095184 0.011931911900745046
234.102219 0.0005050118999641002
236.08284 0.006094338778737342
239.106232 0.004519903834753669
249.102249 0.006934802585074035
250.075012 0.0005517503490001404
251.106094 1.0
252.141006 0.0006772933728665673
332.528381 0.00045294881749357435
390.133026 0.025669229511343008
END IONS

BEGIN IONS
CHARGE=1+
PRECURSORTYPE=M+H
FORMULA=C11H19N3O6
ONTOLOGY=
INCHIKEY=JCMUOFQHZLPHQP-BQBZGAKWSA-N
INCHI=InChI=1S/C11H19N3O6/c1-2-7(10(18)13-5-9(16)17)14-8(15)4-3-6(12)11(19)20/h6-7H,2-5,12H2,1H3,(H,13,18)(H,14,15)(H,16,17)(H,19,20)/t6-,7-/m0/s1
SMILES=CC[C@H](N=C(O)CC[C@H](N)C(=O)O)C(O)=NCC(=O)O
IONMODE=positive
INSTRUMENTTYPE=LC-ESI-Orbitrap
INSTRUMENT=Orbitrap
COMMENT=DB#=CCMSLIB00010126851; origin=GNPS
NUM_PEAKS=32
COMPOUND_NAME=Ophthalmic acid
PRECURSOR_MZ=290.135
COLLISION_ENERGY=102040
PARENT_MASS=289.1277235480092
55.169998 0.003509184818801032
55.8876 0.0043769176766933204
57.508701 0.0038508779931463386
58.0658 1.0
58.680698 0.0038622584559800314
76.039803 0.0044154589467360495
84.0448 0.08770910013961163
86.096703 0.005626297621356348
91.9646 0.003940677618817954
96.9953 0.03157380378220587
98.992401 0.018102635698269663
104.560997 0.004455125306764817
124.074997 0.007261886158311122
130.050003 0.05446799509243982
136.223007 0.004577027673731861
142.050003 0.005358006647374879
161.091995 0.6864449803274527
169.095993 0.009232728349621357
170.065994 0.011055971569996192
170.080994 0.022342683081609343
197.091995 0.02428903837204383
202.985001 0.007895604613529636
214.074997 0.005544747773575327
215.102005 0.2977230613021957
227.102005 0.03661268350467487
243.209 0.004487836865930532
271.39801 0.005030926090451411
272.07901 0.11150992088674536
272.118988 0.007390041301772644
273.108002 0.04320742903075686
290.089996 0.23909463975969877
290.134003 0.1730329568050091
END IONS

BEGIN IONS
CHARGE=1+
PRECURSORTYPE=M+H
FORMULA=C16H13N3O2S
ONTOLOGY=
INCHIKEY=KDRIURZVJMYZNJ-UHFFFAOYSA-N
INCHI=InChI=1S/C16H13N3O2S/c20-14(17-11-6-2-1-3-7-11)10-22-16-18-13-9-5-4-8-12(13)15(21)19-16/h1-9H,10H2,(H,17,20)(H,18,19,21)
SMILES=OC(CSc1nc(O)c2ccccc2n1)=Nc1ccccc1
IONMODE=positive
INSTRUMENTTYPE=LC-ESI-Orbitrap
INSTRUMENT=Orbitrap
COMMENT=DB#=CCMSLIB00010109127; origin=GNPS
NUM_PEAKS=25
COMPOUND_NAME=2-(4-hydroxyquinazolin-2-ylthio)-N-phenylacetamide
PRECURSOR_MZ=312.08
COLLISION_ENERGY=102040
PARENT_MASS=311.0727235480092
70.512558 0.0006844809500951162
89.834587 0.0007662630895870002
94.065323 0.013767845396198908
97.852463 0.0006778774233038461
106.065071 0.013015551305593441
118.634117 0.0008000426689423436
132.044434 0.1384388754701838
134.060059 0.001043611214820346
136.182358 0.0008249328853094387
145.039856 0.001128695117707865
150.041962 0.0014177264057257657
150.054993 0.02464842569381478
150.090973 0.0007075932938645617
151.98056 0.0008604903372624317
181.22348 0.0008376319752926505
191.027374 0.1094600600920938
193.042587 0.000834838175496344
218.185226 0.0008945238984174394
219.022247 1.0
219.863449 0.0007528020542047957
222.516052 0.0007533100178041242
260.935638 0.0011281871541085366
269.937744 0.0006634004607229846
288.928406 0.005381366371285834
312.079651 0.07071996220750822
END IONS

BEGIN IONS
CHARGE=1+
PRECURSORTYPE=M+H
FORMULA=C9H14N4O3
ONTOLOGY=
INCHIKEY=CQOVPNPJLQNMDC-ZETCQYMHSA-N
INCHI=InChI=1S/C9H14N4O3/c10-2-1-8(14)13-7(9(15)16)3-6-4-11-5-12-6/h4-5,7H,1-3,10H2,(H,11,12)(H,13,14)(H,15,16)/t7-/m0/s1
SMILES=NCCC(O)=N[C@@H](Cc1cnc[nH]1)C(=O)O
IONMODE=positive
INSTRUMENTTYPE=LC-ESI-Orbitrap
INSTRUMENT=Orbitrap
COMMENT=DB#=CCMSLIB00010103325; origin=GNPS
NUM_PEAKS=31
COMPOUND_NAME=L-Carnosine
PRECURSOR_MZ=227.114
COLLISION_ENERGY=102040
PARENT_MASS=226.10672354800926
55.018902 0.002914879272134991
57.979198 0.0022574011682292925
66.745003 0.002223940440761173
73.955101 0.002926938610184187
79.461098 0.0021395554850143646
82.0532 0.0025136087340137444
83.060997 0.011559394291200958
92.3834 0.002692071612470882
95.060799 0.046518667550000455
110.071999 1.0
111.056 0.002681859278057805
112.086998 0.004033863782754841
118.658997 0.0025918265761860127
122.070999 0.13620060632519912
122.082001 0.004329577248608597
136.212997 0.004268028650697457
138.065994 0.04001578399435806
146.070999 0.012706955032407563
152.082001 0.07711473467929793
156.076996 0.7981449990383059
164.082001 0.1818929802440566
166.098007 0.0027800438396627047
180.057999 0.004669329897694072
180.076996 0.1471707877037494
181.108002 0.21417079075674636
182.091003 0.002889982141341548
192.076996 0.054979438065376876
198.087006 0.045859220203512775
209.102997 0.05851221351439641
210.087006 0.6164779405703609
227.113998 0.3553810598173697
END IONS

BEGIN IONS
CHARGE=1+
PRECURSORTYPE=M+H
FORMULA=C9H14N4O3
ONTOLOGY=
INCHIKEY=CQOVPNPJLQNMDC-ZETCQYMHSA-N
INCHI=InChI=1S/C9H14N4O3/c10-2-1-8(14)13-7(9(15)16)3-6-4-11-5-12-6/h4-5,7H,1-3,10H2,(H,11,12)(H,13,14)(H,15,16)/t7-/m0/s1
SMILES=NCCC(O)=N[C@@H](Cc1cnc[nH]1)C(=O)O
IONMODE=positive
INSTRUMENTTYPE=LC-ESI-Orbitrap
INSTRUMENT=Orbitrap
COMMENT=DB#=CCMSLIB00010126941; origin=GNPS
NUM_PEAKS=31
COMPOUND_NAME=L-Carnosine
PRECURSOR_MZ=227.114
COLLISION_ENERGY=102040
PARENT_MASS=226.10672354800926
55.018902 0.002914879272134991
57.979198 0.0022574011682292925
66.745003 0.002223940440761173
73.955101 0.002926938610184187
79.461098 0.0021395554850143646
82.0532 0.0025136087340137444
83.060997 0.011559394291200958
92.3834 0.002692071612470882
95.060799 0.046518667550000455
110.071999 1.0
111.056 0.002681859278057805
112.086998 0.004033863782754841
118.658997 0.0025918265761860127
122.070999 0.13620060632519912
122.082001 0.004329577248608597
136.212997 0.004268028650697457
138.065994 0.04001578399435806
146.070999 0.012706955032407563
152.082001 0.07711473467929793
156.076996 0.7981449990383059
164.082001 0.1818929802440566
166.098007 0.0027800438396627047
180.057999 0.004669329897694072
180.076996 0.1471707877037494
181.108002 0.21417079075674636
182.091003 0.002889982141341548
192.076996 0.054979438065376876
198.087006 0.045859220203512775
209.102997 0.05851221351439641
210.087006 0.6164779405703609
227.113998 0.3553810598173697
END IONS

BEGIN IONS
CHARGE=1+
PRECURSORTYPE=M+H
FORMULA=C21H14ClN3O2
ONTOLOGY=
INCHIKEY=MWUQSPQEKVVGDL-UHFFFAOYSA-N
INCHI=InChI=1S/C21H14ClN3O2/c22-15-9-5-13(6-10-15)19-24-18-4-2-1-3-17(18)20(25-19)23-16-11-7-14(8-12-16)21(26)27/h1-12H,(H,26,27)(H,23,24,25)
SMILES=O=C(O)c1ccc(Nc2nc(-c3ccc(Cl)cc3)nc3ccccc23)cc1
IONMODE=positive
INSTRUMENTTYPE=LC-ESI-Orbitrap
INSTRUMENT=Orbitrap
COMMENT=DB#=CCMSLIB00010104848; origin=GNPS
NUM_PEAKS=25
COMPOUND_NAME="4-{[2-(4-chlorophenyl)quinazolin-4-yl]amino}benzoic acid, chloride "
PRECURSOR_MZ=376.085
COLLISION_ENERGY=102040
PARENT_MASS=375.0777235480092
53.18502 0.00039994286901086205
55.1535 0.0004223853329547086
68.294693 0.00039280798162987033
90.990967 0.0003991645176602084
92.385643 0.00042316368430536227
93.985992 0.00039903479243509946
152.778076 0.00041797467530100467
157.983826 0.0005488674274359252
161.416901 0.00039644028793292064
203.957748 0.00040591022936587324
214.042023 0.0015727886292207886
220.086517 0.0016246787192643645
239.036713 0.03588835380116314
258.03244 0.000741768837172919
264.075592 0.0030185762630599248
309.206085 0.0005723476931806433
330.079468 0.0022902988492983357
331.088409 0.0025874993400229174
332.094269 0.038757616330122674
341.117645 0.00044054686446996024
358.075043 0.0005261655130418606
374.205292 0.001789948656053154
375.077728 0.0004963287112668044
376.084015 1.0
377.979309 0.0014050539131549291
END IONS

BEGIN IONS
CHARGE=1+
PRECURSORTYPE=M+H
FORMULA=C26H29N3O4
ONTOLOGY=
INCHIKEY=RIOFFQYFQSEETA-UHFFFAOYSA-N
INCHI=InChI=1S/C26H29N3O4/c1-2-32-21-7-8-24-22(16-21)20(15-26(31)33-24)17-27-11-13-28(14-12-27)18-25(30)29-10-9-19-5-3-4-6-23(19)29/h3-8,15-16H,2,9-14,17-18H2,1H3
SMILES=CCOc1ccc2oc(=O)cc(CN3CCN(CC(=O)N4CCc5ccccc54)CC3)c2c1
IONMODE=positive
INSTRUMENTTYPE=LC-ESI-Orbitrap
INSTRUMENT=Orbitrap
COMMENT=DB#=CCMSLIB00010107540; origin=GNPS
NUM_PEAKS=46
COMPOUND_NAME=6-ethoxy-4-{[4-(2-indolinyl-2-oxoethyl)piperazinyl]methyl}chromen-2-one
PRECURSOR_MZ=448.223
COLLISION_ENERGY=102040
PARENT_MASS=447.21572354800924
56.049969 0.015715955426888854
58.065578 0.012997285039775383
60.538952 0.0003684777173986801
70.065498 0.07747922577500657
72.081131 0.029124677960336215
74.383987 0.00044853911863527724
82.052803 0.006022472454240271
82.065353 0.001707065291732518
82.397652 0.0005580865481321822
82.711479 0.00038165855784616867
84.081009 0.0009680595039766595
85.076172 0.002312798137185992
88.574997 0.00041153512952714274
92.379478 0.00044873439034561044
96.068466 0.001457898589347401
97.07608 0.481237659438131
98.083847 0.042997561349245504
99.091522 0.0022454293971210506
104.284218 0.00044853911863527724
108.698929 0.00042647341536762974
111.091537 0.003041356888439026
132.080658 0.0016169473974137628
145.620483 0.00039298431704549216
175.075165 0.00207720281866903
189.092148 0.0008935633464845576
194.117661 0.00044053297851161753
203.070999 0.0032603541115776694
216.101395 0.004701849877257085
217.087051 0.0014773281245255509
227.069702 0.0007204549752742079
230.08046 0.0005826907836341608
244.096603 0.01109065206008237
246.111313 0.0005053631863422279
256.096619 0.002349802126294127
258.112244 0.01454500861587604
270.111816 0.0017212224907316724
272.119324 0.000726508398294536
273.159485 0.000882725766561067
286.131958 0.004028845927593836
299.138824 0.0009676689605559932
299.810822 0.0004965759593772356
301.154175 0.5253229818497874
302.507843 0.000496478323522069
328.681305 0.000454201998234939
337.223999 0.00039728029467282175
448.222382 1.0
END IONS

BEGIN IONS
CHARGE=1+
PRECURSORTYPE=M+H
FORMULA=C15H10O5
ONTOLOGY=
INCHIKEY=PVFGJHYLIHMCQD-UHFFFAOYSA-N
INCHI=InChI=1S/C15H10O5/c16-9-2-3-10-12(18)7-14(20-15(10)6-9)8-1-4-11(17)13(19)5-8/h1-7,16-17,19H
SMILES=O=c1cc(-c2ccc(O)c(O)c2)oc2cc(O)ccc12
IONMODE=positive
INSTRUMENTTYPE=LC-ESI-Orbitrap
INSTRUMENT=Orbitrap
COMMENT=DB#=CCMSLIB00010108890; origin=GNPS
NUM_PEAKS=25
COMPOUND_NAME="7,3',4'-Trihydroxyflavone "
PRECURSOR_MZ=271.06
COLLISION_ENERGY=102040
PARENT_MASS=270.0527235480092
52.863338 0.00029129105539075866
60.54493 0.00027683616044494756
68.997452 0.000733212085009935
76.916557 0.0002599887311632781
88.297577 0.00030345310493137215
95.012917 0.00042856271291063364
104.295288 0.00029129105539075866
135.044098 0.002576460412927501
137.023239 0.0076431503137609404
155.033768 0.001564916833512707
161.023178 0.0029615587520700408
169.17981 0.00032987067155647515
185.060272 0.0007481654246090499
197.059891 0.0004260704896441145
215.069717 0.00039626349937654543
236.384155 0.0005917534924023078
243.06427 0.0004712295752334416
245.390579 0.0017477463323445522
247.895203 0.0013436074074458062
253.048828 0.00042547235606014993
256.898956 0.0006045136755268859
269.909271 0.0005884637576905026
270.049164 0.0005599527235215235
271.059845 1.0
272.217834 0.000541809338141264
END IONS

BEGIN IONS
CHARGE=1+
PRECURSORTYPE=M+H
FORMULA=C12H10N2
ONTOLOGY=
INCHIKEY=PSFDQSOCUJVVGF-UHFFFAOYSA-N
INCHI=InChI=1S/C12H10N2/c1-8-12-10(6-7-13-8)9-4-2-3-5-11(9)14-12/h2-7,14H,1H3
SMILES=Cc1nccc2c1[nH]c1ccccc12
IONMODE=positive
INSTRUMENTTYPE=LC-ESI-Orbitrap
INSTRUMENT=Orbitrap
COMMENT=DB#=CCMSLIB00010103762; origin=GNPS
NUM_PEAKS=26
COMPOUND_NAME=HARMANE
PRECURSOR_MZ=183.092
COLLISION_ENERGY=102040
PARENT_MASS=182.08472354800926
53.579071 0.00011809740574795546
61.003712 0.0001217532679491083
72.937508 0.0027068069020589293
73.95829 0.0001453531641226218
77.647911 0.00013441821914595925
88.932137 0.00014257862584496114
90.947891 0.0009646906383292083
99.947449 0.0002219304205860556
102.948181 0.00019532749474730941
113.963814 0.0038224977059464686
115.053658 0.0009291112651215601
118.663963 0.0001573652827835526
130.96666 0.0003120539521698326
131.973923 0.001985916574269102
141.958252 0.002180656519734083
142.065399 0.00020649093111154402
148.977539 0.0004764371847145268
155.974411 0.0008880480986121824
159.968933 0.0024187119039573665
168.067871 0.0008958168057896323
177.956039 0.0006265233847225697
177.978119 0.00018471896603860694
182.083633 0.0014139047062958648
182.45311 0.001349698626388118
183.091568 1.0
183.73378 0.0013827645943324735
END IONS

BEGIN IONS
CHARGE=1+
PRECURSORTYPE=M+H
FORMULA=C20H23NO3S
ONTOLOGY=
INCHIKEY=ARKVAMJJCGXVMD-UHFFFAOYSA-N
INCHI=InChI=1S/C20H23NO3S/c1-4-24-20(23)18-13(3)21(10-11-25-5-2)19-15-9-7-6-8-14(15)17(22)12-16(18)19/h6-9,12,22H,4-5,10-11H2,1-3H3
SMILES=CCOC(=O)c1c(C)n(CCSCC)c2c1cc(O)c1ccccc12
IONMODE=positive
INSTRUMENTTYPE=LC-ESI-Orbitrap
INSTRUMENT=Orbitrap
COMMENT=DB#=CCMSLIB00010110497; origin=GNPS
NUM_PEAKS=22
COMPOUND_NAME=ethyl 1-(2-ethylthioethyl)-5-hydroxy-2-methylbenzo[g]indole-3-carboxylate
PRECURSOR_MZ=358.147
COLLISION_ENERGY=102040
PARENT_MASS=357.1397235480092
55.054821 0.002444585473612205
61.011162 0.0923947406405618
62.729771 0.0006681670845244109
69.614479 0.0006316895154837474
89.042198 1.0
90.04557 0.0007789726033844909
91.038208 0.0008172152160884122
121.324242 0.0005544198262255679
128.609451 0.0005734430745962365
132.867126 0.0005253946637631045
152.508057 0.0006165885863647631
153.776062 0.0005187267210352412
162.133133 0.000573050842671068
165.260635 0.0006344351389599265
168.004425 0.0006099206436369
185.472839 0.0006773845347658689
222.090805 0.004194724323713715
250.086243 0.015946385033684878
296.128632 0.004327298714420642
312.105042 0.023313873400085977
316.451904 0.000528728635127036
358.146606 0.06957998236525265
END IONS

BEGIN IONS
CHARGE=1+
PRECURSORTYPE=M+H
FORMULA=C18H17N3O4S
ONTOLOGY=
INCHIKEY=HKSLSAQTOBXZMV-UHFFFAOYSA-N
INCHI=InChI=1S/C18H17N3O4S/c1-24-14-8-7-11(9-15(14)25-2)19-16(22)10-26-18-20-13-6-4-3-5-12(13)17(23)21-18/h3-9H,10H2,1-2H3,(H,19,22)(H,20,21,23)
SMILES=COc1ccc(N=C(O)CSc2nc(O)c3ccccc3n2)cc1OC
IONMODE=positive
INSTRUMENTTYPE=LC-ESI-Orbitrap
INSTRUMENT=Orbitrap
COMMENT=DB#=CCMSLIB00010110784; origin=GNPS
NUM_PEAKS=32
COMPOUND_NAME="N-(3,4-dimethoxyphenyl)-2-(4-hydroxyquinazolin-2-ylthio)acetamide "
PRECURSOR_MZ=372.101
COLLISION_ENERGY=102040
PARENT_MASS=371.0937235480092
66.733994 0.00037906710557108
92.368263 0.0007823999896904715
98.705276 0.0005001218087245208
100.416153 0.00042759866266770295
100.694183 0.0003893492151254493
121.6782 0.0004552918110674708
122.059479 0.0016317022388813722
123.06752 0.002500060664446371
132.044388 0.12961407952567394
135.103378 0.0004691383852673547
136.075745 0.000597459112505883
136.190796 0.0005193150798926767
145.039276 0.0005408389625598231
148.039536 0.001985543902345733
150.054871 0.023060578213745315
151.075119 0.00042773575746176117
152.071259 0.0005038233681640936
153.078278 0.000631047337050156
154.086166 0.09657944375980827
162.001755 0.0007238605126275959
162.054901 0.002555309866451848
163.062759 0.028739181678432372
166.085403 0.003562545318397861
176.070389 0.00045392086312688823
191.027298 0.10295270654598852
193.042465 0.000736199044092839
194.080902 0.0036334233269259796
196.890778 0.0004829849594672387
219.022171 1.0
245.241196 0.0005171215631877446
264.080017 0.0006213136066720198
372.100769 0.09332659558118801
END IONS

BEGIN IONS
CHARGE=1+
PRECURSORTYPE=M+H
FORMULA=C15H9BrO3
ONTOLOGY=
INCHIKEY=QMKNKUCTQSRDGU-UHFFFAOYSA-N
INCHI=InChI=1S/C15H9BrO3/c16-11-4-1-9(2-5-11)13-7-10-3-6-12(17)8-14(10)19-15(13)18/h1-8,17H
SMILES=O=c1oc2cc(O)ccc2cc1-c1ccc(Br)cc1
IONMODE=positive
INSTRUMENTTYPE=LC-ESI-Orbitrap
INSTRUMENT=Orbitrap
COMMENT=DB#=CCMSLIB00010108971; origin=GNPS
NUM_PEAKS=15
COMPOUND_NAME=3-(4-bromophenyl)-7-hydroxychromen-2-one
PRECURSOR_MZ=316.981
COLLISION_ENERGY=102040
PARENT_MASS=315.9737235480092
60.53727 0.0005106746493468842
65.150414 0.0005499573146812599
111.026627 0.0005145475881826677
153.408264 0.0005691375832013307
182.071854 0.0010290951763653354
194.071991 0.0006666987567313061
210.067154 0.1314551055385054
216.39064 0.000569875285836718
237.054016 0.002610176349659246
238.06192 0.4418977105214285
260.990265 0.00809665527469372
288.982941 0.0030400725604312166
315.522308 0.0006008587965229861
316.980011 1.0
318.447968 0.0008850587368059578
END IONS

BEGIN IONS
CHARGE=1+
PRECURSORTYPE=M+H
FORMULA=C16H10Cl2O3
ONTOLOGY=
INCHIKEY=KSMNIYKXKSRXHJ-UHFFFAOYSA-N
INCHI=InChI=1S/C16H10Cl2O3/c17-12-4-1-10(7-13(12)18)2-5-14(19)11-3-6-15-16(8-11)21-9-20-15/h1-8H,9H2/b5-2+
SMILES=O=C(C=Cc1ccc(Cl)c(Cl)c1)c1ccc2c(c1)OCO2
IONMODE=positive
INSTRUMENTTYPE=LC-ESI-Orbitrap
INSTRUMENT=Orbitrap
COMMENT=DB#=CCMSLIB00010108963; origin=GNPS
NUM_PEAKS=37
COMPOUND_NAME="(2E)-1-(2H-benzo[3,4-d]1,3-dioxolan-5-yl)-3-(3,4-dichlorophenyl)prop-2-en-1-on e "
PRECURSOR_MZ=321.008
COLLISION_ENERGY=102040
PARENT_MASS=320.0007235480092
62.285259 0.0004463884912308561
72.858093 0.0003509049320281404
73.949432 0.000565942577305463
82.395157 0.0005467774184690757
111.036926 0.0004088567218429308
117.033386 0.0009844959568929947
135.0 0.0005982267436786632
136.007401 0.01573345462140997
145.02858 0.0022020539346356287
147.044052 0.001617972903431442
149.0233 0.022037422938664532
157.969147 0.0005347991941963336
162.601669 0.00041923784954597397
165.069336 0.0008077886292884467
170.976318 0.17601213428342327
172.813309 0.00044581809959882073
175.038696 0.0032123315932966207
198.247208 0.0015446205395516972
198.971207 0.9845524256645661
199.698746 0.001682313079525028
200.037979 0.002581592526591943
208.211868 0.00197674923998167
212.000854 0.0015834071705301002
221.057877 0.0006207001739808556
228.033951 0.0033233298048906974
235.007965 0.0025149707839702156
255.021576 0.0008417839705577529
256.028412 0.005016024012118769
263.001923 0.014681652451936804
272.985382 0.0008252426132287281
290.99704 0.03788792192296815
293.012115 0.0008197668535611888
302.996887 0.0021454710847377233
319.521942 0.0005208816383746713
321.007568 1.0
321.23822 0.012647978127078009
322.50116 0.0009366971381284333
END IONS

BEGIN IONS
CHARGE=1+
PRECURSORTYPE=M+H
FORMULA=C22H20ClNO6
ONTOLOGY=
INCHIKEY=IQQCKAZHPZJGRN-UHFFFAOYSA-N
INCHI=InChI=1S/C22H20ClNO6/c1-3-29-20(25)12-18(15-6-4-5-7-17(15)23)24-21(26)16-11-13-10-14(28-2)8-9-19(13)30-22(16)27/h4-11,18H,3,12H2,1-2H3,(H,24,26)
SMILES=CCOC(=O)CC(N=C(O)c1cc2cc(OC)ccc2oc1=O)c1ccccc1Cl
IONMODE=positive
INSTRUMENTTYPE=LC-ESI-Orbitrap
INSTRUMENT=Orbitrap
COMMENT=DB#=CCMSLIB00010107844; origin=GNPS
NUM_PEAKS=32
COMPOUND_NAME=ethyl 3-(2-chlorophenyl)-3-[(6-methoxy-2-oxochromen-3-yl)carbonylamino]propano ate
PRECURSOR_MZ=430.105
COLLISION_ENERGY=102040
PARENT_MASS=429.09772354800924
52.81929 0.0011671746815460446
56.247898 0.0012843319894230542
77.039322 0.0013095228098880768
82.737328 0.0012851316980092454
92.947899 0.0014258804091788952
102.128242 0.0012031615679246482
103.054314 0.008504101105557134
113.015373 0.012250335977569773
113.023033 0.0012539430631477888
118.672127 0.0012831324265437675
125.015228 0.012554225240322427
133.633469 0.0015614310145383023
137.015411 0.008169822916529217
139.030884 0.04527750087867981
141.010223 0.2888743341926202
165.010086 0.06119250145247072
167.025833 0.0018589226086014256
167.062698 0.0022727718019553674
169.041519 0.7629707734501547
183.021164 0.00548840002703015
202.050369 0.0013822962912314752
203.033356 0.036443519981318805
211.051376 0.010825655131270165
220.060471 0.878465887030766
221.044449 1.0
229.062561 0.0024679006969860182
267.37381 0.001497454327643007
338.436096 0.0014466728324198663
342.052521 0.5252298062585994
384.062927 0.2611196480002687
430.104767 0.5046553036073654
442.43222 0.0013507078020769231
END IONS

BEGIN IONS
CHARGE=1+
PRECURSORTYPE=M+H
FORMULA=C13H15NO3
ONTOLOGY=
INCHIKEY=GREBWDHJEBOBJM-UHFFFAOYSA-N
INCHI=InChI=1S/C13H15NO3/c1-8-13(9(2)16)11-7-10(17)3-4-12(11)14(8)5-6-15/h3-4,7,15,17H,5-6H2,1-2H3
SMILES=CC(=O)c1c(C)n(CCO)c2ccc(O)cc12
IONMODE=positive
INSTRUMENTTYPE=LC-ESI-Orbitrap
INSTRUMENT=Orbitrap
COMMENT=DB#=CCMSLIB00010107688; origin=GNPS
NUM_PEAKS=27
COMPOUND_NAME=3-acetyl-5-hydroxy-1-(2-hydroxyethyl)-2-methylindole
PRECURSOR_MZ=234.112
COLLISION_ENERGY=102040
PARENT_MASS=233.10472354800925
55.167252 0.0003906607558561148
66.752693 0.0005398753312918848
82.411057 0.0005416865259517026
84.959793 0.0020275627603331095
87.044273 0.03429817530497383
90.061653 0.0004218690330714392
90.209824 0.00041782867575338383
92.39489 0.00040236385981186145
104.301453 0.0005437763659438003
133.05249 0.0009347157671321948
136.231293 0.000581811453799977
146.060303 0.0009575646843791287
146.096451 0.009357049580617876
147.067963 0.00478211119258391
148.075424 0.008632850362022982
159.067871 0.0006752969627798104
160.075699 0.002647409301989263
174.091339 0.06349003557325635
182.914749 0.00039957740648906466
190.082901 0.0007296328025743485
191.093674 0.005345950022451848
192.101791 0.4107420283401808
193.129608 0.0005685758005166921
210.950912 0.0037834463216935284
216.102325 0.0005698297045119506
228.961761 0.0015296235515493168
234.112274 1.0
END IONS

BEGIN IONS
CHARGE=1+
PRECURSORTYPE=M+H
FORMULA=C21H23F3N2O3
ONTOLOGY=
INCHIKEY=IJLCQLHEYNFARK-UHFFFAOYSA-N
INCHI=InChI=1S/C21H23F3N2O3/c1-3-18(27)20-17(5-4-6-19(20)28)25-10-9-14-12(2)26-16-8-7-13(11-15(14)16)29-21(22,23)24/h7-8,11,25-26H,3-6,9-10H2,1-2H3
SMILES=CCC(=O)C1=C(NCCc2c(C)[nH]c3ccc(OC(F)(F)F)cc23)CCCC1=O
IONMODE=positive
INSTRUMENTTYPE=LC-ESI-Orbitrap
INSTRUMENT=Orbitrap
COMMENT=DB#=CCMSLIB00010103875; origin=GNPS
NUM_PEAKS=34
COMPOUND_NAME=3-({2-[2-methyl-5-(trifluoromethoxy)indol-3-yl]ethyl}amino)-2-propanoylcyclohe x-2-en-1-one
PRECURSOR_MZ=409.173
COLLISION_ENERGY=102040
PARENT_MASS=408.1657235480092
77.10125 0.0005676160872969885
112.075577 0.006262792323782231
118.677681 0.0006631420866890958
123.61718 0.0005289864511791771
129.069931 0.0005996577234567235
132.081528 0.0006319988141600076
136.233673 0.0006281059050938715
150.091125 0.050213735680458046
152.10614 0.0006041495416099574
156.080322 0.001184342719736001
157.088455 0.0012276139012788207
162.090881 0.010210651298659492
163.099594 0.0005478520874227594
164.106735 0.011758981016079213
168.101639 0.05939066989478665
176.087509 0.0015444368083535839
176.106369 0.00536128442042819
180.10173 0.0020674341686617824
214.047104 0.0030605751623417944
216.061462 0.000746989358882795
227.054611 0.007220897135867019
228.062378 0.023468102850657528
240.063461 0.0007904102676973892
242.078156 0.6674820813887504
243.07373 0.0005977112689236556
259.082947 0.0011117249929253864
305.164368 0.0005992085416414002
324.120514 0.0008491033582329786
353.146149 0.04573793834530403
370.524963 0.0006306512687140374
374.134735 0.0005812412690284647
391.103638 0.0012924458099571631
391.161774 0.042251389094763885
409.172363 1.0
END IONS

BEGIN IONS
CHARGE=1+
PRECURSORTYPE=M+H
FORMULA=C2H8NO4P
ONTOLOGY=
INCHIKEY=SUHOOTKUPISOBE-UHFFFAOYSA-N
INCHI=InChI=1S/C2H8NO4P/c3-1-2-7-8(4,5)6/h1-3H2,(H2,4,5,6)
SMILES=NCCOP(=O)(O)O
IONMODE=positive
INSTRUMENTTYPE=LC-ESI-Orbitrap
INSTRUMENT=Orbitrap
COMMENT=DB#=CCMSLIB00010103051; origin=GNPS
NUM_PEAKS=8
COMPOUND_NAME=2-Aminoethyl dihydrogen phosphate
PRECURSOR_MZ=142.026
COLLISION_ENERGY=102040
PARENT_MASS=141.01872354800926
57.286598 0.19096348839929023
108.439003 0.20863722307901686
108.907997 0.2122791298285132
118.967003 1.0
119.553001 0.20090288891652713
136.981995 0.2125228790963073
142.026993 0.35752613655357895
142.123001 0.27162908627671234
END IONS

BEGIN IONS
CHARGE=1+
PRECURSORTYPE=M+H
FORMULA=C2H8NO4P
ONTOLOGY=
INCHIKEY=SUHOOTKUPISOBE-UHFFFAOYSA-N
INCHI=InChI=1S/C2H8NO4P/c3-1-2-7-8(4,5)6/h1-3H2,(H2,4,5,6)
SMILES=NCCOP(=O)(O)O
IONMODE=positive
INSTRUMENTTYPE=LC-ESI-Orbitrap
INSTRUMENT=Orbitrap
COMMENT=DB#=CCMSLIB00010103053; origin=GNPS
NUM_PEAKS=10
COMPOUND_NAME=2-Aminoethyl dihydrogen phosphate
PRECURSOR_MZ=142.026
COLLISION_ENERGY=102040
PARENT_MASS=141.01872354800926
57.074402 0.22022164032233132
57.6563 0.22690038167588772
67.197601 0.23953098545273416
74.258797 0.2715942565828086
82.396698 0.2188168981907908
83.987099 0.24204704573209299
104.286003 0.3154199347060705
117.442001 0.25452316036767847
118.968002 1.0
142.026001 0.5245546336154093
END IONS

BEGIN IONS
CHARGE=1+
PRECURSORTYPE=M+H
FORMULA=C2H8NO4P
ONTOLOGY=
INCHIKEY=SUHOOTKUPISOBE-UHFFFAOYSA-N
INCHI=InChI=1S/C2H8NO4P/c3-1-2-7-8(4,5)6/h1-3H2,(H2,4,5,6)
SMILES=NCCOP(=O)(O)O
IONMODE=positive
INSTRUMENTTYPE=LC-ESI-Orbitrap
INSTRUMENT=Orbitrap
COMMENT=DB#=CCMSLIB00010126666; origin=GNPS
NUM_PEAKS=8
COMPOUND_NAME=2-Aminoethyl dihydrogen phosphate
PRECURSOR_MZ=142.026
COLLISION_ENERGY=102040
PARENT_MASS=141.01872354800926
57.286598 0.19096348839929023
108.439003 0.20863722307901686
108.907997 0.2122791298285132
118.967003 1.0
119.553001 0.20090288891652713
136.981995 0.2125228790963073
142.026993 0.35752613655357895
142.123001 0.27162908627671234
END IONS

BEGIN IONS
CHARGE=1+
PRECURSORTYPE=M+H
FORMULA=C15H10O4
ONTOLOGY=
INCHIKEY=CZYNUKPCSYBXCE-UHFFFAOYSA-N
INCHI=InChI=1S/C15H10O4/c16-9-5-6-11(12(17)7-9)15-8-13(18)10-3-1-2-4-14(10)19-15/h1-8,16-17H
SMILES=O=c1cc(-c2ccc(O)cc2O)oc2ccccc12
IONMODE=positive
INSTRUMENTTYPE=LC-ESI-Orbitrap
INSTRUMENT=Orbitrap
COMMENT=DB#=CCMSLIB00010103779; origin=GNPS
NUM_PEAKS=23
COMPOUND_NAME="2',4'-Dihydroxyflavone "
PRECURSOR_MZ=255.065
COLLISION_ENERGY=102040
PARENT_MASS=254.05772354800925
63.760502 0.0006123956007209382
63.995991 0.00013076076666944579
66.732536 0.00014677596406761434
68.99781 0.0001361770096405411
74.170326 0.00012710867140893582
85.88562 0.0001473386906100658
88.795639 0.00015184331658238973
95.049561 0.00023635640236046226
107.049133 0.004884902501549074
121.028412 0.05960824958911959
135.044037 0.04388124977603484
137.023453 0.0009410588514724258
157.945969 0.0001839159158694107
165.069427 0.0005814765908459427
185.059448 0.0005736968963965513
199.07608 0.0002460156034616416
211.073547 0.00025427642910482904
213.054291 0.0028141054025529596
238.061707 0.0002687525694093928
254.007568 0.0009374377061717506
254.056244 0.0006530272707186459
255.06485 1.0
256.127808 0.0008834243989945472
END IONS

BEGIN IONS
CHARGE=1+
PRECURSORTYPE=M+H
FORMULA=C23H21N5O2S
ONTOLOGY=
INCHIKEY=DFLVMUQOXCEBDN-UHFFFAOYSA-N
INCHI=InChI=1S/C23H21N5O2S/c1-15-8-10-17(11-9-15)28-21-20(22(30)25-14-24-21)26-23(28)31-13-19(29)27-12-4-6-16-5-2-3-7-18(16)27/h2-3,5,7-11,14H,4,6,12-13H2,1H3,(H,24,25,30)
SMILES=Cc1ccc(-n2c(SCC(=O)N3CCCc4ccccc43)nc3c(O)ncnc32)cc1
IONMODE=positive
INSTRUMENTTYPE=LC-ESI-Orbitrap
INSTRUMENT=Orbitrap
COMMENT=DB#=CCMSLIB00010110801; origin=GNPS
NUM_PEAKS=29
COMPOUND_NAME="9-(4-methylphenyl)-8-(2-oxo-2-(1,2,3,4-tetrahydroquinolyl)ethylthio)hydropurin -6-one "
PRECURSOR_MZ=432.149
COLLISION_ENERGY=102040
PARENT_MASS=431.1417235480092
71.709251 0.0002758599761350052
85.515083 0.0002648775988766184
104.269577 0.0002890099278522841
118.064697 0.0005655924288069201
118.634064 0.0003175496582276972
133.317535 0.0002856140612000198
174.091034 0.00036473052894958255
208.325363 0.0014643410519455606
212.081299 0.0023044929122121504
213.0896 0.001418099463489195
230.037735 0.0016075454711963675
243.112411 0.00033265042695797904
244.053238 0.02369484019737933
249.073593 0.0014539366945428784
257.04837 0.012990345984622504
262.06427 0.0025940086074381762
271.064148 0.17707428747311757
279.030518 0.001359936215508923
280.039581 0.0039074864770448445
297.728943 0.000645864936267892
299.059021 1.0
300.39801 0.0006749826864990096
321.041351 0.0013621760424497782
363.456635 0.00037484587642441254
376.353241 0.00033185564965638526
431.57486 0.00037058297998859136
432.087952 0.23228905616944073
432.148224 0.07338236627600954
432.578369 0.0005874126783597675
END IONS

BEGIN IONS
CHARGE=1+
PRECURSORTYPE=M+H
FORMULA=C10H11N3O5S
ONTOLOGY=
INCHIKEY=SCYCMFQAMTUOEU-UHFFFAOYSA-N
INCHI=InChI=1S/C10H11N3O5S/c11-9(14)5-6(10(15)16)12-19-8-4-2-1-3-7(8)13(17)18/h1-4,6,12H,5H2,(H2,11,14)(H,15,16)
SMILES=N=C(O)CC(NSc1ccccc1[N+](=O)[O-])C(=O)O
IONMODE=positive
INSTRUMENTTYPE=LC-ESI-Orbitrap
INSTRUMENT=Orbitrap
COMMENT=DB#=CCMSLIB00010112109; origin=GNPS
NUM_PEAKS=68
COMPOUND_NAME=3-carbamoyl-2-[(2-nitrophenylthio)amino]propanoic acid
PRECURSOR_MZ=286.049
COLLISION_ENERGY=102040
PARENT_MASS=285.0417235480092
51.498001 0.003043053478171096
54.034431 0.03153217805576959
57.987701 0.004203870733807733
59.967018 0.003315001989252998
63.563061 0.00344971722390931
65.039291 0.003333887302522574
65.07618 0.0029952106845548354
68.049927 0.007129835269707454
68.588753 0.0027257802152422105
69.974953 0.04543932274748574
70.028976 0.022569208378028574
70.995399 0.05119178916939874
71.990723 0.018763188243766587
72.044884 0.00435873030261826
72.736977 0.003145034169826809
78.034187 0.05233120306999652
80.049561 0.0031488112324807244
85.011208 0.003890374533532762
87.055527 0.39626801029375475
88.039742 0.005851929071799443
92.36953 0.004762876006587197
96.044693 0.014905548253234424
98.006012 0.7500478427936162
100.039467 0.017196966263276374
106.02874 0.18572824286009257
107.060211 0.0072796587549794275
108.04467 0.006005529619725332
109.010773 0.021577099920933488
112.021637 0.0073262425277110495
113.005676 0.02450306445683321
116.536629 0.0034623074327556945
117.04467 0.0146033832409212
119.060516 0.013115220555278572
124.039421 0.005924952283108472
125.005531 0.003881561387340293
126.000816 0.026890168054107683
131.045105 0.01815634017737086
131.060272 0.0039797650163420914
132.280518 0.0029926926427855586
133.076157 0.014360392210185983
136.021454 0.024194604340096793
136.199905 0.003968433828380346
137.016739 0.03876777107978667
138.000748 0.11912855610448866
139.03241 0.027814289383432292
140.016403 0.07985717667084662
153.995697 1.0
159.055359 0.015219044453509394
161.017288 0.013530697447209254
161.070374 0.005447783367830506
163.032425 0.08738612156098445
163.050003 0.026693760796104086
164.001389 0.004033902914381543
175.121124 0.0035227404352183396
177.065811 0.013161804328010193
178.048752 0.0034106875764855185
180.695572 0.003046830540825011
189.011734 0.005843115925606974
205.006958 0.004412868200657712
205.060654 0.006541872516581305
206.039734 0.004827086071703757
207.022629 0.005065041018900421
215.354935 0.003202949130520177
227.01149 0.004341104010233322
241.017105 0.05915509626473684
250.028 0.012797947292349685
251.010422 0.02806735258124462
286.077209 0.038057683300850596
END IONS

BEGIN IONS
CHARGE=1+
PRECURSORTYPE=M+H
FORMULA=C27H28ClNO6
ONTOLOGY=
INCHIKEY=SVEPZXBGWWNPEV-UHFFFAOYSA-N
INCHI=InChI=1S/C27H28ClNO6/c1-15-24(27(32)35-11-10-33-2)25(17-6-9-21(30)23(14-17)34-3)26-20(29-15)12-18(13-22(26)31)16-4-7-19(28)8-5-16/h4-9,14,18,25,29-30H,10-13H2,1-3H3
SMILES=COCCOC(=O)C1=C(C)NC2=C(C(=O)CC(c3ccc(Cl)cc3)C2)C1c1ccc(O)c(OC)c1
IONMODE=positive
INSTRUMENTTYPE=LC-ESI-Orbitrap
INSTRUMENT=Orbitrap
COMMENT=DB#=CCMSLIB00010110945; origin=GNPS
NUM_PEAKS=20
COMPOUND_NAME="2-methoxyethyl 7-(4-chlorophenyl)-4-(4-hydroxy-3-methoxyphenyl)-2-methyl-5-oxo -1,4,6,7,8-pentahydroquinoline-3-carboxylate "
PRECURSOR_MZ=498.168
COLLISION_ENERGY=102040
PARENT_MASS=497.16072354800923
76.555557 0.0013033825400470057
81.787437 0.0011656983296974347
87.9487 0.0012798754797434205
108.322258 0.0011170051333542939
121.734093 0.0011980205376148645
133.207565 0.001322691911010665
150.054642 0.0024669820250744776
154.790115 0.0013205930663407021
178.0495 0.04892826694617681
192.063293 0.0013436803577102949
203.122742 0.0012311822834002795
204.065399 0.007902989720278576
267.276611 0.0012991848507070798
298.063232 0.012533880600084877
316.072754 0.4021550097533312
330.087952 0.006889667513620452
374.114594 1.0
422.114899 0.022573494194385757
477.127441 0.0014574377388222879
498.154755 0.0029043812542947607
END IONS

BEGIN IONS
CHARGE=1+
PRECURSORTYPE=M+H
FORMULA=C7H6O3
ONTOLOGY=
INCHIKEY=YGSDEFSMJLZEOE-UHFFFAOYSA-N
INCHI=InChI=1S/C7H6O3/c8-6-4-2-1-3-5(6)7(9)10/h1-4,8H,(H,9,10)
SMILES=C1=CC=C(C(=C1)C(=O)O)O
IONMODE=positive
INSTRUMENTTYPE=LC-ESI-Orbitrap
INSTRUMENT=Orbitrap
COMMENT=DB#=CCMSLIB00010102226; origin=GNPS
NUM_PEAKS=21
COMPOUND_NAME=salicylic acid
PRECURSOR_MZ=139.039
COLLISION_ENERGY=102040
PARENT_MASS=138.03172354800924
55.922184 0.0065151997394202465
62.318569 0.006700972219222916
65.038651 0.018255712872783814
66.521095 0.006385188001334092
67.640022 0.007662364204595897
83.048889 0.014973381902904048
87.037064 0.007206184906049721
87.446693 0.006248545571463877
93.033699 0.00984325666145987
93.069984 0.008805036735506751
95.049294 0.01214123747789511
95.08522 0.01007973441020436
97.064568 0.008044632853684227
101.819786 0.007710381226260488
106.21833 0.007321723233588394
121.028442 1.0
123.999619 0.007630819933631344
130.942017 0.007512295774816862
136.650208 0.008831548966678903
139.039185 0.033236482912350665
139.111877 0.015166895758500634
END IONS

BEGIN IONS
CHARGE=1+
PRECURSORTYPE=M+H
FORMULA=C19H18F2N2O2
ONTOLOGY=
INCHIKEY=XFDRWJXKVPEHHA-UHFFFAOYSA-N
INCHI=InChI=1S/C19H18F2N2O2/c1-12-14(15-4-2-3-5-17(15)23-12)8-9-22-19(24)11-25-18-7-6-13(20)10-16(18)21/h2-7,10,23H,8-9,11H2,1H3,(H,22,24)
SMILES=Cc1[nH]c2ccccc2c1CCN=C(O)COc1ccc(F)cc1F
IONMODE=positive
INSTRUMENTTYPE=LC-ESI-Orbitrap
INSTRUMENT=Orbitrap
COMMENT=DB#=CCMSLIB00010106975; origin=GNPS
NUM_PEAKS=22
COMPOUND_NAME="2-(2,4-difluorophenoxy)-N-[2-(2-methylindol-3-yl)ethyl]acetamide "
PRECURSOR_MZ=345.141
COLLISION_ENERGY=102040
PARENT_MASS=344.13372354800924
60.101799 0.0003831411632791254
67.332176 0.00040659878552070446
82.398193 0.00038669534846724345
85.052528 0.0037252125793702864
86.910988 0.00044214063740188495
117.057373 0.0005092436537535536
117.069473 0.0006924974420529201
130.065201 0.0018486028000439581
132.080322 0.0006770011946327254
141.069855 0.0005032726226375154
143.07283 0.012500922311056317
144.080536 0.0009637528556100894
156.081207 0.0016302336620859855
157.087357 0.002851025190500772
158.096298 1.0
173.106689 0.0005103809930137515
214.066727 0.008975881441480838
215.117691 0.0022593244403828795
300.158447 0.002243259523332586
316.114563 0.0005302844300672125
328.113434 0.003006982836555392
345.140076 0.2156417984120185
END IONS

BEGIN IONS
CHARGE=1+
PRECURSORTYPE=M+H
FORMULA=C21H28O5
ONTOLOGY=
INCHIKEY=MFYSYFVPBJMHGN-UHFFFAOYSA-N
INCHI=InChI=1S/C21H28O5/c1-19-7-5-13(23)9-12(19)3-4-14-15-6-8-21(26,17(25)11-22)20(15,2)10-16(24)18(14)19/h9,14-15,18,22,26H,3-8,10-11H2,1-2H3/t14-,15-,18+,19-,20-,21-/m0/s1
SMILES=CC12CCC(=O)C=C1CCC1C2C(=O)CC2(C)C1CCC2(O)C(=O)CO
IONMODE=positive
INSTRUMENTTYPE=LC-ESI-Orbitrap
INSTRUMENT=Orbitrap
COMMENT=DB#=CCMSLIB00010107827; origin=GNPS
NUM_PEAKS=92
COMPOUND_NAME=Andreson
PRECURSOR_MZ=361.201
COLLISION_ENERGY=102040
PARENT_MASS=360.19372354800925
51.127441 0.0012609067083987143
55.431679 0.0013056274234346749
69.070557 0.0018496307854123397
70.123169 0.0014367440514162532
81.07016 0.006452420438113634
82.403526 0.0019708309819284594
83.049561 0.0030626061775428782
93.070183 0.010031033990293692
95.086143 0.0029599580189980153
97.065063 0.004955181600713783
105.069977 0.014377846505390349
107.085297 0.009778711473240618
119.085426 0.007767332419367002
121.064957 0.03295223914161001
121.10112 0.0056181024445016835
123.080544 0.002997642735588909
130.964401 0.001354145072906606
131.08548 0.002059304677586415
131.760269 0.0012833809170242198
133.064728 0.0023411715570423194
133.101196 0.002511959603441109
135.080627 0.012039390297262509
135.116791 0.007457395549350721
137.095947 0.002343437194082074
139.063568 0.0014237707177137387
139.075195 0.008214989281601333
143.085648 0.006141811846562953
145.101334 0.018080711463768207
147.080185 0.010742461098442771
149.095779 0.006098366263931277
155.086441 0.001454248659198277
157.100601 0.0027039239558396145
159.080261 0.005149963768023541
159.116089 0.001747961746392195
161.095825 0.007260991003758726
163.111557 0.15641072360849353
171.080826 0.0019595084892850625
171.116531 0.0025970177658733037
173.095718 0.005069653196775154
175.112 0.001871632511941615
179.106689 0.002188246749414259
181.101364 0.0018327125108340715
183.116653 0.0033853456046003864
185.095047 0.0022799936644135686
185.398361 0.0014621840813927943
187.111908 0.0055412586394774435
189.091019 0.002676559842145895
189.127731 0.001498940911457356
195.116669 0.0020708776426663672
197.133209 0.001503085091771279
197.517319 0.0013871618940889598
199.111725 0.0018006748091764356
201.126709 0.0022251686635847323
209.132507 0.0017905989861604415
210.099411 0.0026057672234866274
211.111572 0.0015584281151393557
213.126572 0.0027618513993485166
221.132004 0.0025827636072111287
223.111038 0.0021622090011232096
223.148315 0.0020025214377081425
225.126205 0.0023780820861020405
237.127579 0.0021795257545778163
237.162766 0.002509352413078778
239.142548 0.008999554341224703
241.122665 0.0023880952910088956
241.158127 0.0034491591503683495
243.173798 0.002251997677073083
249.127106 0.0015397622260605731
255.137405 0.0020900615542843904
255.17131 0.0031670531835866415
257.152527 0.0029736770774548213
258.161591 0.002909909072129868
261.161255 0.0013780879608191888
265.158508 0.00853280464825837
267.141907 0.0017153832519738138
267.174591 0.010443180692090864
279.17334 0.0034033739274770265
283.168427 0.013129782201920496
284.177765 0.0032334397643846774
285.150421 0.0015259293164962423
285.185242 0.006869679054638695
295.166534 0.0025557695096168663
297.185608 0.003465155230975662
299.163666 0.013983972906350997
300.170837 0.0017254590749898081
301.179596 0.016610990439057234
303.407654 0.0014974266917272688
307.170074 0.004759055990335225
313.178864 0.007347022593160263
325.178741 0.010020963859833074
343.190369 0.03036415868767745
361.200348 1.0
END IONS

BEGIN IONS
CHARGE=1+
PRECURSORTYPE=M+H
FORMULA=C20H8I4O5
ONTOLOGY=
INCHIKEY=LAINPTZBIXYTIZ-UHFFFAOYSA-N
INCHI=InChI=1S/C20H8I4O5/c21-11-5-9-13(7-3-1-2-4-8(7)20(27)28)10-6-12(22)17(26)15(24)19(10)29-18(9)14(23)16(11)25/h1-6,25H,(H,27,28)
SMILES=O=C(O)c1ccccc1-c1c2cc(I)c(=O)c(I)c-2oc2c(I)c(O)c(I)cc12
IONMODE=positive
INSTRUMENTTYPE=LC-ESI-Orbitrap
INSTRUMENT=Orbitrap
COMMENT=DB#=CCMSLIB00010111595; origin=GNPS
NUM_PEAKS=22
COMPOUND_NAME=Erythrosin(E)
PRECURSOR_MZ=836.662
COLLISION_ENERGY=102040
PARENT_MASS=835.6547235480093
66.734154 0.00788310745103832
74.677841 0.009128845230621515
85.367813 0.007856026194960425
92.366562 0.01006437953149427
130.245316 0.010034836343045656
133.925949 0.007777244359097456
145.635895 0.008237625712421679
157.951111 0.011977300983541982
212.292313 0.01269864716816229
229.064774 0.009992983492743454
257.058807 0.011095929194825018
283.550995 0.010202247744254465
305.409332 0.010017602816450632
329.043335 0.0960596772406662
334.003143 0.009274099240493864
383.964294 0.013289510937134557
391.785156 0.009682780014033015
427.951141 0.01123872127232665
509.858917 0.013789283208390266
582.852234 0.2550660413358445
652.690613 0.010022526681192068
836.661621 1.0
END IONS

BEGIN IONS
CHARGE=1+
PRECURSORTYPE=M+H
FORMULA=C19H19NO2
ONTOLOGY=
INCHIKEY=WCOCVJTYTQHQIG-UHFFFAOYSA-N
INCHI=InChI=1S/C19H19NO2/c1-2-3-11-16-18(21)15-12-7-8-13-17(15)20(19(16)22)14-9-5-4-6-10-14/h4-10,12-13,21H,2-3,11H2,1H3
SMILES=CCCCc1c(O)c2ccccc2n(-c2ccccc2)c1=O
IONMODE=positive
INSTRUMENTTYPE=LC-ESI-Orbitrap
INSTRUMENT=Orbitrap
COMMENT=DB#=CCMSLIB00010103801; origin=GNPS
NUM_PEAKS=26
COMPOUND_NAME=3-butyl-4-hydroxy-1-phenylhydroquinolin-2-one
PRECURSOR_MZ=294.149
COLLISION_ENERGY=102040
PARENT_MASS=293.1417235480092
56.159908 0.0003417654636018269
82.385727 0.0002839980268337305
85.069077 0.00031313378464521366
85.634407 0.0002871233157339242
92.359756 0.0002758319493848373
112.473373 0.00029297063045041565
158.059952 0.006178595339911966
184.075333 0.00041163079288680213
185.08374 0.0004502432331698404
186.054626 0.000629796121274517
196.075638 0.02792637182287919
200.105865 0.0022428484568583606
234.092682 0.0004484285492923086
238.085678 0.0013069756549068095
250.086151 0.014245873333250664
251.093964 0.004986247216602583
252.102859 0.0005157734843029341
262.072815 0.0005391627431688998
264.101288 0.0029891876093788104
265.108429 0.00040850550398660845
266.115662 0.00047252351855509223
278.024963 0.0003353132542594915
293.137848 0.000671433034686775
294.148407 1.0
295.471405 0.0003684816429099343
319.67038 0.0003541658034316277
END IONS

BEGIN IONS
CHARGE=1+
PRECURSORTYPE=M+H
FORMULA=C16H18N2O6
ONTOLOGY=
INCHIKEY=XDQGAOKGLVNKPO-UHFFFAOYSA-N
INCHI=InChI=1S/C16H18N2O6/c1-16(15(22)23)10-9(13(20)18(2)14(10)21)11(17-16)7-5-4-6-8(24-3)12(7)19/h4-6,9-11,17,19H,1-3H3,(H,22,23)
SMILES=COc1cccc(C2NC(C)(C(=O)O)C3C(=O)N(C)C(=O)C23)c1O
IONMODE=positive
INSTRUMENTTYPE=LC-ESI-Orbitrap
INSTRUMENT=Orbitrap
COMMENT=DB#=CCMSLIB00010112895; origin=GNPS
NUM_PEAKS=82
COMPOUND_NAME="3-(2-hydroxy-3-methoxyphenyl)-1,5-dimethyl-4,6-dioxo-1,2,3,5,3a,6a-hexahydro-2 ,5-diazapentalenecarboxylic acid "
PRECURSOR_MZ=335.124
COLLISION_ENERGY=102040
PARENT_MASS=334.11672354800925
53.70322 0.0004223747458147214
55.054779 0.0016752968141515332
62.89502 0.0004041467649918992
70.065483 0.015178316620250548
80.049797 0.0055799986938477545
81.033882 0.0005128436813095877
82.065331 0.001973877849715554
82.403976 0.0003608692890505973
88.039337 0.0021458694724486864
88.234154 0.0004022456872373717
98.060066 0.017159351468571383
99.04364 0.0008589516607367951
103.054176 0.0006086803657584137
108.044296 0.02100165326667782
110.036217 0.0005279404752425999
111.091904 0.0030817588681922407
112.075577 0.0006639234487429179
114.054947 0.0009685432018801436
125.059303 0.00362222409099408
127.086769 0.0006929987555768675
131.049103 0.009191487286933916
137.046967 0.0024917537956694793
137.059708 0.006714271144681411
138.054642 0.0009527754393278862
140.070251 0.0009528872674310938
146.059555 0.0006418933124110408
151.074997 0.001488991194207841
152.07048 0.03844940941342134
153.054596 0.004565717797755744
155.08139 0.1600619125110598
157.064743 0.0006144954271252036
157.985123 0.0004094026858426516
159.04393 0.008732544751370341
161.059708 0.003202980532069169
162.054901 0.001969181069380839
163.075211 0.0382699253077733
165.065811 0.0560095528038884
166.049301 0.0036736650184695297
166.085876 0.001514376173635943
167.081818 0.005386088762885952
170.247375 0.0004649812531367783
172.074799 0.0008082935299837984
174.091537 0.000693557896092905
176.070435 0.04300852935308784
177.078339 0.01853047584199852
178.086075 0.01274639085979708
179.094666 0.0005817297928854066
184.06015 0.0020565188179858954
187.075287 0.022588270394985805
189.054459 0.0060644380369426374
189.092224 0.000654753544279903
191.070572 0.0038518071868790743
192.101959 0.0016202773873734441
201.054245 0.0015388665282383854
204.101547 0.023883351658231845
205.050079 0.000554891048115607
206.080292 0.0006528524665253756
206.116989 0.0007370590282406218
211.071182 0.0714584934339011
215.069763 0.003071247026490736
217.048767 0.0019013014107338876
217.071747 0.0005038974330529878
218.081223 0.0030090706011073665
222.075516 0.004308513160378498
223.084091 0.0007344869818668495
224.091888 0.0023523041509697284
230.080536 0.002032699432002698
232.096375 0.010704186039021745
234.521194 0.0004192435589249115
242.079895 0.0004968522625509154
248.091354 0.04996613845034877
258.075226 0.000829317213386808
263.13855 0.0166092690288937
266.1008 0.0006232180191753885
272.091431 0.031375499088824615
274.093567 0.0006386502974180233
289.117889 0.3141133999590262
291.09726 0.0008613000509041526
291.133362 0.021185498668350948
291.507965 0.00041678334065434647
320.097382 0.0004898070920488429
335.12326 1.0
END IONS

BEGIN IONS
CHARGE=1+
PRECURSORTYPE=M+H
FORMULA=C31H31N5O5
ONTOLOGY=
INCHIKEY=HOVSZVKDFBLXOB-UHFFFAOYSA-N
INCHI=InChI=1S/C31H31N5O5/c1-38-23-12-8-21(9-13-23)31(20-6-4-3-5-7-20,22-10-14-24(39-2)15-11-22)40-17-26-25(37)16-27(41-26)36-19-35-28-29(32)33-18-34-30(28)36/h3-15,18-19,25-27,37H,16-17H2,1-2H3,(H2,32,33,34)
SMILES=COc1ccc(C(OCC2OC(n3cnc4c(N)ncnc43)CC2O)(c2ccccc2)c2ccc(OC)cc2)cc1
IONMODE=positive
INSTRUMENTTYPE=LC-ESI-Orbitrap
INSTRUMENT=Orbitrap
COMMENT=DB#=CCMSLIB00010110876; origin=GNPS
NUM_PEAKS=21
COMPOUND_NAME=5-(6-aminopurin-9-yl)-2-{[bis(4-methoxyphenyl)phenylmethoxy]methyl}oxolan-3-ol
PRECURSOR_MZ=554.24
COLLISION_ENERGY=102040
PARENT_MASS=553.2327235480093
61.074032 0.0005117006167649205
68.508034 0.0004777793319576222
85.189957 0.00046546813206617036
94.040253 0.0006917846577303072
119.035156 0.0025981870579427934
128.277206 0.0005706372119899561
136.061661 1.0
137.045654 0.0018373810986933889
195.079895 0.006931860389945469
207.777313 0.0019095456852911547
207.800613 0.0011119370965790058
225.090347 0.0031287473851797252
245.960739 0.000443203196092268
268.206757 0.0005236189060215388
288.114777 0.0025680639092722194
303.137238 0.3604213783200294
433.799103 0.0005085573316862519
437.50473 0.0005708991524131786
489.092682 0.0005657913141603421
532.412842 0.0004980797147573567
554.23877 0.23256184020481646
END IONS

BEGIN IONS
CHARGE=1+
PRECURSORTYPE=M+H
FORMULA=C12H23NO4
ONTOLOGY=
INCHIKEY=XYDQDGJOQQAPIM-UHFFFAOYSA-N
INCHI=InChI=1S/C12H23NO4/c13-10(7-4-5-9-12(16)17)6-2-1-3-8-11(14)15/h10H,1-9,13H2,(H,14,15)(H,16,17)
SMILES=NC(CCCCCC(=O)O)CCCCC(=O)O
IONMODE=positive
INSTRUMENTTYPE=LC-ESI-Orbitrap
INSTRUMENT=Orbitrap
COMMENT=DB#=CCMSLIB00010106627; origin=GNPS
NUM_PEAKS=55
COMPOUND_NAME="6-aminododecanedioic acid, chloride "
PRECURSOR_MZ=246.17
COLLISION_ENERGY=102040
PARENT_MASS=245.16272354800924
50.559521 0.0005332649700808726
55.018471 0.0005652608682857249
59.15712 0.0005915291057008198
60.650269 0.0005619032740296602
66.743851 0.0005956767221347822
67.05455 0.005012098202126779
69.070221 0.0061473600717656144
79.054459 0.0024026549485310425
81.070099 0.010270485818213132
83.049393 0.0014461355966415368
83.085739 0.0009513842077331716
85.065086 0.0020256168641294182
91.054337 0.008953321342113376
92.379044 0.0007888371446307426
93.07 0.0013987342659676815
95.049156 0.006744616838256192
95.08532 0.0007779743396846508
97.064789 0.008528486915948949
99.043793 0.0006365603698409824
99.080147 0.004637035173169899
101.00341 0.0007246478426765635
104.285423 0.0006657911904231932
105.069977 0.007300199934862671
107.08535 0.002946190206924584
109.064636 0.007090646552175336
109.100601 0.0006322152478625456
111.043877 0.0024626966340512593
113.05957 0.009705619961016355
119.08551 0.011494822688409921
121.101189 0.0035598399336065362
123.116127 0.00517563279295158
127.075256 0.0007493360357358632
129.069595 0.002342020746377403
131.085709 0.0031049846646819994
133.101105 0.008037883143474546
134.920319 0.0011238065480593203
147.116638 0.12632138615711289
149.095917 0.00720579228460391
149.943466 0.000937163808531015
151.111069 0.0010797628116415298
157.101013 0.028672472407981674
161.02179 0.0005251672427574223
165.127167 0.029008626844677098
167.953552 0.008725597449334396
175.111465 0.09798151308602611
183.138336 0.0009541492853558131
185.96402 0.014236792162347977
192.138412 0.0030433629348059874
193.12204 0.32805651186642937
210.148972 0.004740725584018958
211.113419 0.0010128084320647091
211.132477 0.06846904959739482
228.158218 0.005017628357372062
229.142975 0.10190970086007739
246.16954 1.0
END IONS

BEGIN IONS
CHARGE=1+
PRECURSORTYPE=M+H
FORMULA=C14H21NO4
ONTOLOGY=
INCHIKEY=MMZDBIIMJQSYKF-UHFFFAOYSA-N
INCHI=InChI=1S/C14H21NO4/c1-18-12-6-5-11(10-13(12)19-2)7-8-15-14(17)4-3-9-16/h5-6,10,16H,3-4,7-9H2,1-2H3,(H,15,17)
SMILES=COc1ccc(CCN=C(O)CCCO)cc1OC
IONMODE=positive
INSTRUMENTTYPE=LC-ESI-Orbitrap
INSTRUMENT=Orbitrap
COMMENT=DB#=CCMSLIB00010104742; origin=GNPS
NUM_PEAKS=39
COMPOUND_NAME="N-[2-(3,4-dimethoxyphenyl)ethyl]-4-hydroxybutanamide "
PRECURSOR_MZ=268.154
COLLISION_ENERGY=102040
PARENT_MASS=267.1467235480092
59.049568 0.0002586972896911747
61.979542 0.00024135920629002113
62.786942 0.0002622957598310368
69.033829 0.010987699578514464
77.039169 0.0002908872407604863
79.054512 0.0006072254794192698
79.291672 0.00024829443965048256
86.060287 0.0005139269627021187
87.044197 0.049550672118981384
91.05455 0.00047257726945861277
99.480133 0.0002991310087172612
103.054413 0.001012871204276448
105.069801 0.005539092372924771
105.094551 0.00028316688664223674
107.085426 0.0003721472391915533
118.041672 0.0005338166885660836
120.056969 0.0004825875591204109
121.065292 0.0014140679115061607
133.064804 0.007094612874292418
134.072388 0.0025651203691533122
135.044586 0.00045366894454188303
135.080368 0.004721258250228846
137.095993 0.0004724464159989814
138.067337 0.012905487882871498
147.082352 0.0003021406382887822
149.058823 0.0003307321192182317
150.067307 0.04838502950058534
150.090805 0.0016550999841471034
164.545029 0.0004480422457777351
165.090805 1.0
165.639603 0.0004658383162875984
182.11731 0.21558506577316436
208.096069 0.0017415286942336085
222.03064 0.00042959190796971504
233.114868 0.00039164440467662415
236.126678 0.00044437834890805733
250.143265 0.24672079594495597
251.128708 0.0004681936785609626
268.153687 0.29862584893635435
END IONS

BEGIN IONS
CHARGE=1+
PRECURSORTYPE=M+H
FORMULA=C20H19ClN2O4
ONTOLOGY=
INCHIKEY=AHLXYBMYSMXNBD-UHFFFAOYSA-N
INCHI=InChI=1S/C20H19ClN2O4/c21-10-19(24)23-18(20(25)26)8-14-11-22-17-9-15(6-7-16(14)17)27-12-13-4-2-1-3-5-13/h1-7,9,11,18,22H,8,10,12H2,(H,23,24)(H,25,26)
SMILES=O=C(O)C(Cc1c[nH]c2cc(OCc3ccccc3)ccc12)N=C(O)CCl
IONMODE=positive
INSTRUMENTTYPE=LC-ESI-Orbitrap
INSTRUMENT=Orbitrap
COMMENT=DB#=CCMSLIB00010112766; origin=GNPS
NUM_PEAKS=86
COMPOUND_NAME=2-(2-chloroacetylamino)-3-[6-(phenylmethoxy)indol-3-yl]propanoic acid
PRECURSOR_MZ=387.111
COLLISION_ENERGY=102040
PARENT_MASS=386.1037235480092
51.511021 0.0008124963962737416
63.563591 0.0006528910599307076
65.038857 0.0062761290707308145
70.028954 0.0008225813488448673
82.393242 0.0008916413501471416
91.054268 0.5190749204549366
101.521873 0.0007708411573930046
102.054764 0.015236390192076692
108.044151 0.005782185632845024
113.023201 0.0033881055876995147
115.053864 0.008163330630127568
117.069389 0.007149792896729428
118.005257 0.0014360095508885611
118.647186 0.0008368318253040669
122.059631 0.0008028499199013604
128.033936 0.011484568597518532
132.080841 0.005055849809624597
133.052322 0.0016804600316886748
133.06427 0.0014384211699816564
134.05957 0.001477664789769298
145.999939 0.003065167867324118
146.059753 0.026170890398270124
158.059662 0.018922659594922533
159.067917 0.003734501784707748
160.060013 0.025326823715686772
160.075226 0.001434474884192955
161.059296 0.007695257287967709
164.010605 0.0037877766428552166
170.059784 0.004236995508469058
172.076035 0.0032640168234547933
174.078659 0.002962783674917254
175.060837 0.0010516851626889202
186.053879 0.001044231067310262
188.054962 0.018630415208459258
198.054733 0.01620520335320288
200.106842 0.008355602443277075
201.065613 0.011362233738068788
203.058014 0.0017466699376991093
206.095825 0.0035069326375593013
208.05162 0.0016765137458999734
208.111847 0.0034223067312015936
216.065018 0.027723534618024747
218.095444 0.009348531795334219
219.079605 0.003185968060078255
219.101273 0.0009946832568521224
220.1129 0.0010709781154336826
221.083359 0.0048113993288244825
222.091644 0.006356589453200449
224.106979 0.011444228787234029
231.079651 0.001528966505022416
233.082916 0.003375828254134666
234.091003 0.02157017888294242
235.098724 0.0009372428748165799
236.106445 1.0
237.110886 0.007723539002786736
238.121185 0.0008822141118741328
248.106369 0.11450389377826391
250.049683 0.04230900689306508
250.120758 0.0010374346862297207
251.057861 0.004918387521318165
252.100967 0.01017637485856402
263.057709 0.013597804637368125
264.124939 0.0066755808877871445
265.073242 0.004089667505690873
265.133087 0.006762399175138575
266.115417 0.0008688405878124225
276.101257 0.05777165080369399
276.13559 0.0018565082254846314
277.037689 0.0008438474444839803
278.116943 0.0013066590722589043
280.096161 0.005110220858268927
287.117249 0.0018521234634971853
291.050964 0.0033747320636378047
294.111572 0.1849529876781611
309.062714 0.030269765904134632
312.12146 0.005034583713985483
314.092987 0.0013353792632766757
323.094086 0.009335596747471253
324.077087 0.003341407872533215
333.121613 0.0015533019340527412
341.104187 0.260256013098161
351.087708 0.0036832000694546297
351.1315 0.0016210465067587818
369.098999 0.10610860923900044
370.081635 0.003164044250141025
387.109314 0.4875403699555232
END IONS

BEGIN IONS
CHARGE=1+
PRECURSORTYPE=M+H
FORMULA=C25H25N3O4
ONTOLOGY=
INCHIKEY=ABCGVRYRJFTVKW-UHFFFAOYSA-N
INCHI=InChI=1S/C25H25N3O4/c1-5-28-20-9-7-6-8-18(20)19-12-16(10-11-21(19)28)15-26-27-25(29)17-13-22(30-2)24(32-4)23(14-17)31-3/h6-15H,5H2,1-4H3,(H,27,29)/b26-15+
SMILES=CCn1c2ccccc2c2cc(C=NN=C(O)c3cc(OC)c(OC)c(OC)c3)ccc21
IONMODE=positive
INSTRUMENTTYPE=LC-ESI-Orbitrap
INSTRUMENT=Orbitrap
COMMENT=DB#=CCMSLIB00010107121; origin=GNPS
NUM_PEAKS=69
COMPOUND_NAME="N-[(1E)-2-(9-ethylcarbazol-3-yl)-1-azavinyl](3,4,5-trimethoxyphenyl)carboxamid e "
PRECURSOR_MZ=432.192
COLLISION_ENERGY=102040
PARENT_MASS=431.18472354800923
52.864559 0.000494053846867317
54.18668 0.0005069161107429486
65.866837 0.0004980554400730691
69.033707 0.0007984607585905988
73.966454 0.0004984841822022569
77.362061 0.00047233091232180586
79.054497 0.0008236136301696119
99.043671 0.00046961554550361694
109.064774 0.0011894735804098002
119.085533 0.01730817684126523
124.0513 0.0006259635086140725
135.080353 0.004543523257045341
137.059464 0.0011914743770126764
138.067749 0.004637560697380514
139.039474 0.0007535857490689507
139.075623 0.004316004100489723
141.018021 0.0006758405096429107
143.085373 0.0005505048938770336
147.065063 0.0006169599239011303
151.038589 0.0007788815346910263
152.046036 0.003700759145105344
154.062332 0.03740346335033677
155.071869 0.0007295761898344383
156.040939 0.0019927934164645266
167.034485 0.0007099969659348658
167.071365 0.0005445025040684055
168.07991 0.003729484867760921
169.085815 0.03632060364605165
170.059937 0.027318305159497073
170.095963 0.011179593932612884
179.057541 0.0007570156861024525
180.041306 0.0008830658720836424
180.080444 0.0030433545470175054
182.060913 0.0006248201962695719
182.096359 0.0018810346347895941
183.067993 0.002929737882782759
184.035477 0.0006068130268436876
191.044556 0.004183808610656843
192.067703 0.0036408781610621256
193.05983 0.0006829862117960394
193.076019 0.015000829616019978
194.080475 0.0021078392211298985
194.096802 0.00499713242972595
195.065125 0.2603640906743871
196.060745 0.0007936016811264713
196.111465 0.0062116159676717
197.082855 0.0030456411717065066
198.091171 0.11990316716098252
205.074615 0.0009669564153613732
207.03978 0.0011100133724670095
207.091232 0.004933678594606167
210.074982 0.0032257128659653493
210.094116 0.000976388742203503
211.062607 0.012706201740607296
211.084473 0.0021558583395989233
212.0905 0.008092507688418231
212.110809 0.010872471654071413
220.101089 0.0007633039039972058
221.107132 0.1997416685757601
222.063141 0.0009212239215813496
222.115005 0.036636300767176874
223.122971 0.0066990957685581385
226.085785 0.005361849067621638
237.086502 0.0173499077418395
264.112793 0.020891317728930076
281.137115 0.0023802333872071637
415.212341 0.007575301766574778
417.168854 0.0022368906020154024
432.191162 1.0
END IONS

BEGIN IONS
CHARGE=1+
PRECURSORTYPE=M+H
FORMULA=C3H8NO6P
ONTOLOGY=
INCHIKEY=BZQFBWGGLXLEPQ-REOHCLBHSA-N
INCHI=InChI=1S/C3H8NO6P/c4-2(3(5)6)1-10-11(7,8)9/h2H,1,4H2,(H,5,6)(H2,7,8,9)/t2-/m0/s1
SMILES=N[C@@H](COP(=O)(O)O)C(=O)O
IONMODE=positive
INSTRUMENTTYPE=LC-ESI-Orbitrap
INSTRUMENT=Orbitrap
COMMENT=DB#=CCMSLIB00010103343; origin=GNPS
NUM_PEAKS=16
COMPOUND_NAME=O-phospho-L-serine
PRECURSOR_MZ=186.016
COLLISION_ENERGY=102040
PARENT_MASS=185.00872354800924
53.709702 0.001486202062409521
60.548599 0.0014151762947986599
69.445999 0.0015791068811233549
69.764 0.0014548045291809008
70.029297 0.03158623985506949
83.978104 0.0016523513711804003
88.039803 1.0
94.625099 0.001550789227816487
104.305 0.0013872646400728344
114.112999 0.001425182775661189
140.011002 0.00291506355247887
158.001007 0.0017945095369523583
166.703003 0.0013591725636787908
185.434998 0.002330850769148749
186.016006 0.02020784035498542
186.184998 0.0016903268773504044
END IONS

BEGIN IONS
CHARGE=1+
PRECURSORTYPE=M+H
FORMULA=C3H8NO6P
ONTOLOGY=
INCHIKEY=BZQFBWGGLXLEPQ-REOHCLBHSA-N
INCHI=InChI=1S/C3H8NO6P/c4-2(3(5)6)1-10-11(7,8)9/h2H,1,4H2,(H,5,6)(H2,7,8,9)/t2-/m0/s1
SMILES=N[C@@H](COP(=O)(O)O)C(=O)O
IONMODE=positive
INSTRUMENTTYPE=LC-ESI-Orbitrap
INSTRUMENT=Orbitrap
COMMENT=DB#=CCMSLIB00010126959; origin=GNPS
NUM_PEAKS=16
COMPOUND_NAME=O-phospho-L-serine
PRECURSOR_MZ=186.016
COLLISION_ENERGY=102040
PARENT_MASS=185.00872354800924
53.709702 0.001486202062409521
60.548599 0.0014151762947986599
69.445999 0.0015791068811233549
69.764 0.0014548045291809008
70.029297 0.03158623985506949
83.978104 0.0016523513711804003
88.039803 1.0
94.625099 0.001550789227816487
104.305 0.0013872646400728344
114.112999 0.001425182775661189
140.011002 0.00291506355247887
158.001007 0.0017945095369523583
166.703003 0.0013591725636787908
185.434998 0.002330850769148749
186.016006 0.02020784035498542
186.184998 0.0016903268773504044
END IONS

BEGIN IONS
CHARGE=1+
PRECURSORTYPE=M+H
FORMULA=C22H21NO5
ONTOLOGY=
INCHIKEY=OWEIRXJAOJVYMR-UHFFFAOYSA-N
INCHI=InChI=1S/C22H21NO5/c1-13-19(27-12-20(24)23-14-5-3-6-15(11-14)26-2)10-9-17-16-7-4-8-18(16)22(25)28-21(13)17/h3,5-6,9-11H,4,7-8,12H2,1-2H3,(H,23,24)
SMILES=COc1cccc(N=C(O)COc2ccc3c4c(c(=O)oc3c2C)CCC4)c1
IONMODE=positive
INSTRUMENTTYPE=LC-ESI-Orbitrap
INSTRUMENT=Orbitrap
COMMENT=DB#=CCMSLIB00010108327; origin=GNPS
NUM_PEAKS=39
COMPOUND_NAME="N-(3-methoxyphenyl)-2-(6-methyl-4-oxo(1,2,3-trihydrocyclopenta[2,1-c]chromen-7 -yloxy))acetamide "
PRECURSOR_MZ=380.149
COLLISION_ENERGY=102040
PARENT_MASS=379.1417235480092
52.89032 0.0008070645619331708
71.271698 0.0007609381927218466
71.444183 0.0008241048766736601
72.819366 0.0007271513617708765
76.092438 0.0008764010150151615
104.049149 0.0010629630815705176
104.28392 0.0010741274257108381
106.065163 0.0013541174248088766
116.640602 0.0008346816237539637
121.064301 0.0015903314429356584
122.072746 0.00680319876087532
123.067833 0.03642602314603579
124.075699 0.022310472771780533
132.044373 0.003685408760425808
134.059998 0.0019652183672264215
136.075668 0.11884150538841194
147.079788 0.001388785651349872
158.073059 0.0009354545195468569
162.135284 0.0008405575943541324
164.070465 0.03194618316046718
164.085602 0.0015876872561655824
165.078369 0.011439339564408424
166.084976 0.0012665654628663632
171.079956 0.0033216861802753657
173.095871 0.000948381654867228
187.075623 0.004510101234159485
188.083038 0.002152074232311786
189.091064 0.00418427866438013
201.090805 0.0428699063047108
215.069962 0.004707827644855162
216.077774 0.024467247780572455
216.09964 0.0013599933954090454
217.085678 0.2992064795503002
224.3293 0.0009933328299585186
229.08551 0.054533414147515655
257.08017 0.01132152635387504
329.622955 0.0007571188118317369
362.13855 0.0010964561139914792
380.14859 1.0
END IONS

BEGIN IONS
CHARGE=1+
PRECURSORTYPE=M+H
FORMULA=C13H12ClNO6
ONTOLOGY=
INCHIKEY=NSQLRHGFKIZZIG-UHFFFAOYSA-N
INCHI=InChI=1S/C13H12ClNO6/c1-17-10-8(7-3-6(4-16)21-15-7)9(14)11-13(12(10)18-2)20-5-19-11/h3,16H,4-5H2,1-2H3
SMILES=COc1c2c(c(Cl)c(-c3cc(CO)on3)c1OC)OCO2
IONMODE=positive
INSTRUMENTTYPE=LC-ESI-Orbitrap
INSTRUMENT=Orbitrap
COMMENT=DB#=CCMSLIB00010107027; origin=GNPS
NUM_PEAKS=171
COMPOUND_NAME="[3-(4-chloro-6,7-dimethoxy-2H-benzo[3,4-d]1,3-dioxolen-5-yl)isoxazol-5-yl]meth an-1-ol "
PRECURSOR_MZ=314.043
COLLISION_ENERGY=102040
PARENT_MASS=313.03572354800923
53.56567 0.0003112210745204901
55.01833 0.0016589941965594083
79.493698 0.00036257739675243055
83.012756 0.0006970541643590823
84.9599 0.0006490452524956045
89.375229 0.00028003730424586414
91.054237 0.0006016529688578962
97.027893 0.0004237116808501436
98.035851 0.00045762623326746273
98.999611 0.0007290307423525547
111.959351 0.0002924579585077914
113.014771 0.000541928120704799
114.994957 0.00045181230999592233
126.994843 0.0005660647112563456
128.027588 0.00036055133258204526
129.0103 0.0008009119755279637
132.044357 0.0006365365084871387
133.052155 0.0005172629916740214
138.067078 0.0007428608325590979
141.009888 0.002289364422788853
142.989456 0.0008047879243756573
143.026382 0.0005108324401767115
144.020905 0.0014920641268689671
154.005875 0.00040856024444552305
156.020889 0.0005770759295736571
157.005157 0.0023422182707119473
159.020203 0.0006406767265744478
162.054535 0.00048220327255170186
163.039505 0.0004043319366116755
164.070709 0.000593020173697124
166.990189 0.0007117651520310104
167.033539 0.0003008264844289481
167.057434 0.0005968961225448177
168.020508 0.000592843994204047
169.00473 0.0006544187270344525
170.983978 0.0016217322337736264
171.020996 0.0016596108247851778
172.999969 0.0006013886996182807
173.037262 0.0007632976537560278
177.041199 0.0003905018464051323
178.049576 0.0006392672906298319
180.040436 0.000378609730622436
181.99939 0.0007087701006487017
182.04393 0.0006515998551452208
183.007843 0.0006301940467363674
184.999451 0.001207005707070409
186.007675 0.0018722594729290959
186.030624 0.000455159720364385
189.041794 0.0006918568693133114
190.050385 0.0012675233629423526
191.057098 0.0015139103840105129
192.044632 0.0003317459854639586
192.064972 0.002123227160817258
194.043259 0.0005718786345278861
195.008224 0.0007538720508764093
195.065018 0.0019012409995402596
195.995758 0.000496561901237476
196.014801 0.002670528756060905
197.000885 0.003178806593588
197.020584 0.0004368370530843788
197.994492 0.0005292431972032562
198.030365 0.0006884213691983102
198.981842 0.0006264061876352123
199.00206 0.0026946653466124516
199.018906 0.0011213824734349954
199.987228 0.0069473740402512
200.995407 0.008355048189936293
201.030792 0.0008180013863564311
201.989105 0.006722745186578047
202.024628 0.000670274881411381
202.997665 0.0005220198379870999
205.035706 0.0008092805014491204
206.045029 0.0013745524049866196
207.051788 0.0003976371158747501
208.013641 0.0005437780053821074
208.06041 0.0006266704568748278
209.995529 0.001631686375132476
210.030945 0.0014741819083216533
210.076233 0.0007370469092875575
210.957718 0.0006405886368279094
210.980087 0.013389817653343768
211.002609 0.0030867528084552766
212.011734 0.0012983547742308245
213.017838 0.0014868668318231961
214.002289 0.01388541056736932
214.02626 0.009122662241272707
214.975571 0.0004882814650628577
215.011398 0.005649812073739222
216.020462 0.024165043539678573
217.012924 0.0007843511031787274
217.03569 0.0006514236756521438
218.043427 0.0024617560567646805
219.052109 0.002185947060352664
220.060699 0.007743529169466085
221.067764 0.002137938148489186
221.994949 0.002082970146649167
222.039215 0.001340725942315839
223.002411 0.002029147311514149
224.010468 0.004386428928884178
225.01828 0.0007283260243802468
225.98912 0.009566458384333626
226.026367 0.0017807342262756035
226.994675 0.00418373442209911
227.981369 0.0007314972552556325
228.002426 0.004794020186117779
228.041504 0.0005966318533052021
229.025406 0.012618063383920046
229.997833 0.0003937611670270565
230.021713 0.0014051195470354762
231.005768 0.00042573774502052886
231.029495 0.005546923249782264
232.03714 0.000679612394544461
232.059967 0.0004540145536593846
233.066696 0.0006998730362483141
234.040939 0.0007047179723079311
235.047836 0.0006223540592944416
236.012146 0.0010192864571968838
236.054596 0.002227789689958447
237.018311 0.008636318750633696
237.060379 0.0025281757256547027
237.986938 0.0030338989605321817
238.026321 0.0031326475664018305
238.998322 0.0018534963569163973
240.005081 0.02245900941846761
241.013306 0.2136148164839524
241.983109 0.002439469350890442
242.02063 0.0038741870527628512
242.993118 0.001959908770734895
244.012329 0.0006567090604444533
244.03598 0.005285825241042176
246.04071 0.002470300762178914
247.046402 0.0029272222774740686
248.055573 0.003929595503335563
249.989853 0.002016198118772991
250.070602 0.001703039069828654
250.997162 0.0014527760999128
252.003845 0.004767152813423539
252.977737 0.0026690312303697507
253.013336 0.02208771113680787
254.021332 0.006588848771839541
255.029022 0.010217441611253078
256.00235 0.0017432079942502061
256.03653 0.03092866236865048
257.008118 0.0022206544204888294
259.000763 0.000465554310455927
259.036041 0.0013745524049866196
260.055603 0.0005087182862597878
261.061768 0.0013630126481900772
264.006683 0.001282674799346973
264.050049 0.00546015484944185
265.013428 0.013984863891211277
265.993805 0.0018289193176321582
266.022949 0.0007874342443075745
267.005585 0.0005146202992778667
268.000549 0.22395012217607396
269.017395 0.0006359198802613693
270.01413 0.0031359068870237547
278.064392 0.006559514886242223
279.073486 0.012375376132206501
281.008209 0.018733870216847887
281.043091 0.00073105680652294
283.024017 0.003685939264410095
283.994751 0.004951965101661293
284.031403 0.00907817691927077
296.032562 0.004324678016560697
298.013947 0.0004737466568840067
299.018677 0.09055493809537107
312.602478 0.0007657641666591056
314.042084 1.0
315.489471 0.0013638054559089237
330.514923 0.0004378060402963022
END IONS

BEGIN IONS
CHARGE=1+
PRECURSORTYPE=M+H
FORMULA=C19H18BrN5O3S
ONTOLOGY=
INCHIKEY=PRNAQHLYVJWCIL-UHFFFAOYSA-N
INCHI=InChI=1S/C19H18BrN5O3S/c1-9-13(23-18(28-9)12-7-11(20)5-6-14(12)27-4)8-29-19-24-15-16(25(19)3)21-10(2)22-17(15)26/h5-7H,8H2,1-4H3,(H,21,22,26)
SMILES=COc1ccc(Br)cc1-c1nc(CSc2nc3c(O)nc(C)nc3n2C)c(C)o1
IONMODE=positive
INSTRUMENTTYPE=LC-ESI-Orbitrap
INSTRUMENT=Orbitrap
COMMENT=DB#=CCMSLIB00010111410; origin=GNPS
NUM_PEAKS=60
COMPOUND_NAME="8-{[2-(5-bromo-2-methoxyphenyl)-5-methyl(1,3-oxazol-4-yl)]methylthio}-2,9-dime thylhydropurin-6-one "
PRECURSOR_MZ=476.039
COLLISION_ENERGY=102040
PARENT_MASS=475.0317235480092
67.814072 0.00020835181615573423
69.033821 0.002708125541602705
73.02771 0.0002587035050600367
82.065117 0.0002677208820495725
83.815331 0.00023215545106599958
84.460968 0.000235908024098912
86.129753 0.00022560245039658536
89.680443 0.0003443965907369919
89.685654 0.00035979894273775184
96.044411 0.0003030622788222253
108.956589 0.0002593195991400671
131.048859 0.0012014394646120041
132.056824 0.0044079851169593
133.051132 0.001788185063011862
146.072342 0.00030720691172424794
158.059555 0.0017153739444628153
159.06781 0.011288803845502423
172.074432 0.00044476391722921655
173.083267 0.001106448959181863
174.067123 0.0009756689885572287
174.864761 0.00028317924260306247
183.066055 0.0002981335261819821
184.075302 0.003074197442246221
184.940781 0.0002676648734968425
184.959702 0.00813350601890311
196.948135 0.0005945307872293331
197.048721 0.00715509261126211
200.071396 0.0004915870673115267
201.078476 0.00124187763968309
208.959244 0.0036124396339818677
209.969833 0.0006928257972705465
210.975098 0.00030703888606605786
211.970245 0.07374041245594368
212.332199 0.00040191737439073896
212.955322 0.000408134323743773
222.975388 0.002338525102137197
229.980164 0.0011796521376000201
235.96933 0.0003069828775133278
236.977646 0.0009970642557001023
237.985703 0.01735626637129996
249.984634 0.0027729274371113568
250.970093 0.0003092232196225292
252.996475 0.0004953956488971692
262.997162 0.00034322041112966117
264.97171 0.0020210126167106222
265.076569 0.0005941387273602229
265.979767 0.0005608136384858514
278.790741 0.001097095530875947
279.996246 1.0
281.209045 0.0012031197211939053
281.241699 0.0003097833051498296
321.022217 0.010171657252749124
340.054626 0.0010861738630935898
427.862549 0.000299533740000233
439.065918 0.00029695734657465134
473.361938 0.00043625061721425107
476.03775 0.5877386300397616
478.728882 0.0004515409521095509
638.867493 0.0003342590426928554
676.605896 0.0003125837327863314
END IONS

BEGIN IONS
CHARGE=1+
PRECURSORTYPE=M+H
FORMULA=C17H14N2O8
ONTOLOGY=
INCHIKEY=QVNCBRMSRLGETO-UHFFFAOYSA-N
INCHI=InChI=1S/C17H14N2O8/c1-25-17(22)13-12(9-4-2-3-5-10(9)19(23)24)15-14(27-16(13)18)11(21)6-8(7-20)26-15/h2-6,12,20H,7,18H2,1H3
SMILES=COC(=O)C1=C(N)Oc2c(oc(CO)cc2=O)C1c1ccccc1[N+](=O)[O-]
IONMODE=positive
INSTRUMENTTYPE=LC-ESI-Orbitrap
INSTRUMENT=Orbitrap
COMMENT=DB#=CCMSLIB00010108912; origin=GNPS
NUM_PEAKS=282
COMPOUND_NAME="methyl 2-amino-6-(hydroxymethyl)-4-(2-nitrophenyl)-8-oxo-4H-pyrano[3,2-b]pyran -3-carboxylate "
PRECURSOR_MZ=375.082
COLLISION_ENERGY=102040
PARENT_MASS=374.0747235480092
55.018341 0.009880027286193603
57.034111 0.0035841173840510383
65.039062 0.0010013306559957778
66.731621 0.0012895237148966697
67.018158 0.03547044912711424
68.997643 0.005213383055316508
69.992844 0.00136831607113
72.421532 0.000950315943993859
73.028954 0.0020867955228847726
82.029297 0.001298337775085483
82.383583 0.001308487298939268
83.012863 0.024719432438626097
85.028618 0.013199722864580245
85.033974 0.001235303890098819
87.138748 0.001137013764356902
89.191948 0.000995187523136908
90.034103 0.0011263300550371285
91.042221 0.0010339159694210873
92.026016 0.0015814560720594827
92.049591 0.0021380773276196857
95.012627 0.0013386687777676282
96.043327 0.0008902200790701327
97.028389 0.0051661076415765094
101.023216 0.05778551278332529
102.034653 0.0010886699796849267
103.04158 0.002020289432369182
103.550812 0.0008648462694356705
104.049477 0.005744897593975243
105.033401 0.0017609423886316786
106.065277 0.0020130779285783347
111.00779 0.006692275517906164
113.02356 0.0053285000232370676
114.0336 0.012104642659303454
115.038849 0.0018357283538700936
115.054024 0.0023418690828943666
116.049423 0.01126917659049716
117.057098 0.002097479232204546
118.065231 0.0045144013730703215
119.036293 0.002097479232204546
119.060417 0.0014099825374771168
120.044212 0.04491484816579407
122.059807 0.0017083251202317938
126.018608 0.0013079531134732793
127.041443 0.0014268093796557602
128.049347 0.009512240592860398
129.018341 0.00478202829153065
129.045624 0.001267622110791134
130.028595 0.020328962093665148
130.06485 0.013240588052728378
131.06073 0.004652221223295401
132.044342 0.036158747100040654
133.052002 0.009301237333794869
134.059952 0.009138577859401318
135.031479 0.007726458580060246
135.054611 0.007519194619256638
137.04715 0.002478353469454474
140.049149 0.002348546401219225
141.018097 0.030333454593434114
141.044617 0.008873621868270933
141.777969 0.001104695543664587
142.02861 0.0020475328911346044
142.052551 0.007805785121759564
142.065094 0.006203762909259517
143.034103 0.008086499584136615
143.060074 0.007630038103449289
144.04422 0.021543165657857414
145.03981 0.0037024394647675305
145.051758 0.0015766484028655846
146.023544 0.014135882893725403
146.059799 0.018431802411206358
147.055557 0.0021028210868644327
148.039581 0.002510938782879783
148.074402 0.0011396846916868456
150.054794 0.08518602207574857
153.017975 0.0010892041651509154
153.044434 0.003970600568693847
154.028214 0.0021412824404156176
154.065094 0.0092667823712386
155.060776 0.007242219455141508
156.044479 0.0083324919912244
157.039429 0.01366473131272339
157.052048 0.0016778765486704392
157.07576 0.01813025471565575
158.023392 0.004978875635747478
158.04744 0.009530669991437007
158.059631 0.009510905129195425
159.029495 0.01980706289339421
159.054977 0.033106678440114334
159.068909 0.0019772875023570933
160.039139 0.05852295581912267
160.075363 0.001252664917743451
161.034363 0.008884305577590706
161.047714 0.006026680427284271
161.070831 0.0015074713850200506
162.054581 0.017672991956769437
163.050278 0.013750468080014573
167.036163 0.0012072591531344134
167.060059 0.0020883980792827384
168.030075 0.0017398420627251258
168.044495 0.001387279655172598
169.039246 0.06264366250375933
169.075943 0.00482022255234884
170.008987 0.0015913385031802731
170.023605 0.005371234860516162
170.046616 0.003983955205343564
170.06012 0.02168392352814543
171.030396 0.001617246498280724
171.054855 0.02577284617755577
171.069321 0.0014823646681185827
172.039322 0.013793202917293667
173.071457 0.005414503883261245
174.054596 0.018268074565880827
175.049957 0.0051759900726973
176.034195 0.010542417264019563
176.05397 0.0009917153176079816
176.071457 0.001211799729595317
177.041763 0.011324197693493994
178.04953 0.011096634684982818
179.060608 0.005530689222113782
180.068802 0.004569422476067155
181.012268 0.003462857283271608
182.060669 0.00748847895496229
183.054337 0.008156744972914126
184.039078 0.0016129730145528147
185.033417 0.02284096924747691
185.070801 0.006331433235630812
186.039276 0.0009607325605806383
186.05603 0.015264616783359481
187.022751 0.0014978560466322544
187.030502 0.0014615314349450243
187.049896 0.02948570225891008
188.033966 0.028481967768317355
188.053284 0.0011722700051121548
188.070679 0.0012884553439646924
189.065308 0.00200292840472455
190.049118 0.010037879091393257
191.045258 0.002116442816247144
194.045471 0.001888879807735967
195.056 0.0054158393469262165
196.038727 0.003772417760812047
197.034256 0.10186703162217703
197.070389 0.00477401550954082
198.055038 0.01854638519366093
198.079361 0.004974335059286574
199.04863 0.01938665893166112
200.03392 0.00610360313438664
200.071762 0.002451110010689051
201.065506 0.08316786938524334
202.051483 0.012790002612166928
202.070984 0.0019185271010983386
203.044312 0.009834888614317559
203.080536 0.0015248324126646826
204.028625 0.00592384972508145
204.066315 0.0016973743181790259
205.059845 0.015011145779747853
207.055038 0.0013221090283219792
208.023422 0.004810874306694038
208.063934 0.004322895883513381
209.068542 0.0013405384268985886
210.054871 0.0054810099737768354
211.050018 0.004811942677626016
212.034607 0.004862423204161945
213.039642 0.0065301502289786
213.06575 0.012991390532844661
214.050232 0.02258375894560336
215.043762 0.021778474355625427
216.028534 0.004001049140255202
216.068649 0.007262518502849078
217.061127 0.006718183513006615
218.044571 0.0856940324539038
220.061905 0.0014374930889755337
221.071426 0.0013434764469615263
223.049911 0.005899811379111959
224.05751 0.0020795840190939254
225.028381 0.00433331250010016
225.065536 0.004740896010649522
226.01387 0.001241714115690683
226.032684 0.0016279302076004976
226.053055 0.012008489275425492
227.043182 0.0021554383552643175
227.059647 0.0015576848188229863
227.081833 0.0013127607826671774
228.064713 0.019610482641910374
229.024765 0.005429995261774917
229.060867 0.04346400044016882
230.040955 0.01795691153194242
231.03952 0.004390470344960948
232.060287 0.005742760852111288
235.049133 0.012783058201109075
236.030975 0.0023135572531969664
236.057556 0.06189259773857925
237.065674 0.004698695358836416
238.050308 0.008011980711631193
239.041916 0.008665823722001337
240.026703 0.0014914458210403903
240.049789 0.015484701195346817
241.036331 0.0015010611594281865
241.060837 0.008816464023410143
242.043945 0.006731805242389326
243.039108 0.06463590719916411
244.023453 0.0012497268976805133
244.060486 0.025389301012975898
245.055588 0.006530951507177583
246.038986 0.004032298990015539
247.070251 0.0013840745423766658
250.074127 0.005455101978676384
251.05954 0.012945984768235623
252.02684 0.0016789449196024165
252.053833 0.0036992343519715986
253.060333 0.11127403767823765
254.044144 0.030981688656411373
254.070862 0.0018554932161116747
255.050034 0.009069667934288778
256.059753 0.008032546852071758
257.054626 0.024899720033397275
258.036285 0.009694130744029543
258.065063 0.007513852764596751
259.045319 0.0016922995562521333
260.054901 0.0570397898728051
261.05014 0.004649283203232463
262.072876 0.0016044260470969957
263.046417 0.002096677954005563
264.052399 0.20870839830364063
265.060852 0.0013341282013067245
267.042328 0.00666743589373769
267.075928 0.01256163832545677
268.055603 0.013561633517787575
269.052673 0.010357054907321493
270.03775 0.006982071133205022
271.037628 0.005334910248828932
271.071594 0.006232074738956917
272.053864 0.025098437026745062
273.060852 0.0019711443694982234
275.065735 0.018140938424975522
278.067993 0.005509321803474235
279.040771 0.004142341196009207
280.048645 0.01413508161552642
281.055115 0.15428745267784502
282.06488 0.059824231614271084
283.046631 0.14028698579974777
284.054108 0.008687992418839866
285.049438 0.008641518283298852
286.037079 0.002876855827082028
286.07074 0.005510924359872202
287.039276 0.0016562420372978977
289.057648 0.004240631321751124
295.035919 0.003659437534755442
295.071808 0.006219521380506183
296.079163 0.06717248688441135
297.053223 0.01593929302690318
298.059448 0.04913491334710463
299.066864 0.384732124685298
300.048798 0.04768459980694537
302.065399 0.0020248300088300856
308.041962 0.025986253271218247
309.049103 0.0018939545696628596
311.065002 0.0014650036404739507
312.048859 0.009420894878176333
313.044739 0.00554164002416655
313.081146 0.033502776963144944
314.065033 0.01603571350351414
315.068878 0.018808670257461368
316.071259 0.017422191880487756
325.044739 0.2248565578477454
326.05368 0.021137451796439014
327.065979 0.0015403237911783543
329.081512 0.004988223881402279
330.059875 0.012413668951377905
332.075195 0.015526901847159923
335.856903 0.0013576323618102264
339.061401 0.0018303864992102068
340.068085 0.0014238713595928225
341.075867 0.002338129784632446
343.055237 0.11006731271056923
344.064514 0.0022425105862204724
347.089752 0.0016239238166055826
348.070679 0.004273216635176434
357.070801 0.5323625580859921
358.051361 0.015719475707648842
373.209747 0.0014625998058770016
375.08139 1.0
376.965485 0.0014310828633836697
END IONS

BEGIN IONS
CHARGE=1+
PRECURSORTYPE=M+H
FORMULA=C16H16BrNO3
ONTOLOGY=
INCHIKEY=GNWHZQLSJKLODU-UHFFFAOYSA-N
INCHI=InChI=1S/C16H16BrNO3/c1-10-8-12(5-6-13(10)17)18-16(19)11-4-7-14(20-2)15(9-11)21-3/h4-9H,1-3H3,(H,18,19)
SMILES=COc1ccc(C(=O)Nc2ccc(Br)c(C)c2)cc1OC
IONMODE=positive
INSTRUMENTTYPE=LC-ESI-Orbitrap
INSTRUMENT=Orbitrap
COMMENT=DB#=CCMSLIB00010108438; origin=GNPS
NUM_PEAKS=31
COMPOUND_NAME="(3,4-dimethoxyphenyl)-N-(4-bromo-3-methylphenyl)carboxamide "
PRECURSOR_MZ=350.039
COLLISION_ENERGY=102040
PARENT_MASS=349.0317235480092
53.039188 0.0009064625472163985
67.951141 0.0006178042586327918
69.029587 0.0006016511421931569
73.950027 0.0006960524720351793
74.006073 0.0006213705310934905
79.054489 0.0038796848757741433
94.041733 0.0009347829461690052
98.036377 0.000928489524179537
107.049179 0.012048336837370843
109.028748 0.00476474978822635
109.065117 0.0024982787490858806
113.723282 0.0006047978531878909
118.557259 0.0006486420263811858
122.036087 0.0026671522391366097
124.051849 0.15314790674491208
126.031113 0.003387119714731768
136.974701 0.0008949246069023735
139.075302 0.19330140750284988
151.643997 0.0007445118213540842
155.070648 0.002880918806045545
157.970444 0.0007491269974796942
165.054565 0.6362102103639234
172.890518 0.0006320693484755864
183.975464 0.034087690863755384
209.957306 0.0006704592226113422
211.970276 0.014729754166350247
271.116089 0.0007325543195740948
308.97406 0.000890728992242728
335.012177 0.0008911485537086926
348.345734 0.000701926332558683
350.038055 1.0
END IONS

BEGIN IONS
CHARGE=1+
PRECURSORTYPE=M+H
FORMULA=C29H31N3O3
ONTOLOGY=
INCHIKEY=VIFLWMXTJSJZPC-UHFFFAOYSA-N
INCHI=InChI=1S/C29H31N3O3/c1-19-23(24-9-5-6-10-25(24)31-19)15-16-30-28(34)26(18-22-8-7-17-35-22)32-27(33)20-11-13-21(14-12-20)29(2,3)4/h5-14,17-18,31H,15-16H2,1-4H3,(H,30,34)(H,32,33)/b26-18-
SMILES=Cc1[nH]c2ccccc2c1CCN=C(O)C(=Cc1ccco1)NC(=O)c1ccc(C(C)(C)C)cc1
IONMODE=positive
INSTRUMENTTYPE=LC-ESI-Orbitrap
INSTRUMENT=Orbitrap
COMMENT=DB#=CCMSLIB00010107348; origin=GNPS
NUM_PEAKS=30
COMPOUND_NAME=(2Z)-2-{[4-(tert-butyl)phenyl]carbonylamino}-3-(2-furyl)-N-[2-(2-methylindol-3 -yl)ethyl]prop-2-enamide
PRECURSOR_MZ=470.244
COLLISION_ENERGY=102040
PARENT_MASS=469.23672354800925
57.06731 0.001209087301655208
57.070339 0.02659478691143507
66.747391 0.0008181636513637931
91.054047 0.000822726962456689
106.028236 0.0009394716712499422
106.843788 0.0007173905313956753
134.556961 0.0006647223158651686
142.262146 0.0006689053510336565
143.061844 0.0007489534331215386
143.073227 0.004710097599717379
146.072647 0.003248697222217469
157.088318 0.005134865807281105
158.09639 0.9779432358324877
161.095963 0.3917037863503379
162.018875 0.002810809495261667
169.064789 0.0007731009543214461
174.092133 0.0016038137111907028
175.122894 0.5912655563750502
184.074951 0.0014131053351000952
194.059875 0.0009752176081442934
210.647507 0.0012263898562157715
212.070206 0.01636707578651994
240.065201 0.036145797028866174
252.137802 0.003019580977761654
267.124359 0.0017241710412658322
268.133026 0.02703134367265544
296.127716 1.0
297.13028 0.0010075410617189726
452.237671 0.0010459489300841797
470.243469 0.11935131011710787
END IONS

BEGIN IONS
CHARGE=1+
PRECURSORTYPE=M+H
FORMULA=C15H10O5
ONTOLOGY=
INCHIKEY=LRMWPUURCIXKOC-UHFFFAOYSA-N
INCHI=InChI=1S/C15H10O5/c16-9-3-1-2-8(6-9)15-14(19)13(18)11-7-10(17)4-5-12(11)20-15/h1-7,16-17,19H
SMILES=O=c1c(O)c(-c2cccc(O)c2)oc2ccc(O)cc12
IONMODE=positive
INSTRUMENTTYPE=LC-ESI-Orbitrap
INSTRUMENT=Orbitrap
COMMENT=DB#=CCMSLIB00010114706; origin=GNPS
NUM_PEAKS=18
COMPOUND_NAME="3,6,3'-Trihydroxyflavone "
PRECURSOR_MZ=271.06
COLLISION_ENERGY=102040
PARENT_MASS=270.0527235480092
54.92514 0.0030314646088090793
62.15382 0.0030328687146955126
62.165699 0.0028447185259134764
64.027443 0.003580470010404425
67.25972 0.002855951373004941
82.394463 0.004597042672181995
104.281982 0.003848654234713148
112.77655 0.003260333868297676
121.02877 0.03127505451441104
136.209625 0.004084544023633911
149.023087 0.00323505996234188
197.060883 0.0032139983740453837
202.52356 0.0033459843273700956
210.951233 0.013243526720837073
228.959839 0.0069615569849353475
271.060028 1.0
271.149963 0.018518752536166257
288.928314 0.004049441376473083
END IONS

BEGIN IONS
CHARGE=1+
PRECURSORTYPE=M+H
FORMULA=C24H24N2O4
ONTOLOGY=
INCHIKEY=DRBKOEZCXGYSBX-UHFFFAOYSA-N
INCHI=InChI=1S/C24H24N2O4/c1-15-8-7-11-21(16(15)2)25-24(28)20-9-5-6-10-22(20)26-23(27)17-12-18(29-3)14-19(13-17)30-4/h5-14H,1-4H3,(H,25,28)(H,26,27)
SMILES=COc1cc(OC)cc(C(O)=Nc2ccccc2C(O)=Nc2cccc(C)c2C)c1
IONMODE=positive
INSTRUMENTTYPE=LC-ESI-Orbitrap
INSTRUMENT=Orbitrap
COMMENT=DB#=CCMSLIB00010107363; origin=GNPS
NUM_PEAKS=26
COMPOUND_NAME="{2-[(3,5-dimethoxyphenyl)carbonylamino]phenyl}-N-(2,3-dimethylphenyl)carboxami de "
PRECURSOR_MZ=405.181
COLLISION_ENERGY=102040
PARENT_MASS=404.1737235480092
50.014889 0.0010374732844538753
50.492279 0.0009066145273406055
60.51379 0.0008432733204400334
61.767849 0.0009870091360990238
71.944633 0.0009205356717143576
79.085136 0.0009824847641775544
80.002068 0.001131441008976702
102.387947 0.0010106750815344024
122.036453 0.0009006980409817609
122.096443 0.00902264169723808
146.02359 0.15097655087638825
155.070084 0.005860105724130946
164.034515 0.001580745943639551
165.054535 0.09863478817412706
176.08725 0.0012755248532450361
182.944305 0.009107908706527312
188.086975 0.001411604039498463
206.097122 0.0012783090821197865
220.438599 0.0009361969591348287
266.998566 0.001083761089496601
269.068268 0.004986205886068658
282.855072 0.0010614872584985976
284.091431 1.0
387.050507 0.007798625078175927
405.057739 0.004659755050504172
405.260406 0.004344093101829343
END IONS

BEGIN IONS
CHARGE=1+
PRECURSORTYPE=M+H
FORMULA=C28H40N2O9
ONTOLOGY=
INCHIKEY=UIFFUZWRFRDZJC-UHFFFAOYSA-N
INCHI=InChI=1S/C28H40N2O9/c1-6-7-8-9-11-20-25(39-22(32)14-16(2)3)18(5)38-28(36)23(17(4)37-27(20)35)30-26(34)19-12-10-13-21(24(19)33)29-15-31/h10,12-13,15-18,20,23,25,33H,6-9,11,14H2,1-5H3,(H,29,31)(H,30,34)/t17-,18+,20-,23+,25+/m1/s1
SMILES=CCCCCCC1C(=O)OC(C)C(N=C(O)c2cccc(N=CO)c2O)C(=O)OC(C)C1OC(=O)CC(C)C
IONMODE=positive
INSTRUMENTTYPE=LC-ESI-Orbitrap
INSTRUMENT=Orbitrap
COMMENT=DB#=CCMSLIB00010110352; origin=GNPS
NUM_PEAKS=22
COMPOUND_NAME=Antipiricullin
PRECURSOR_MZ=549.281
COLLISION_ENERGY=102040
PARENT_MASS=548.2737235480092
51.488461 0.0041200933909319275
94.897667 0.005056258529817907
108.48835 0.004310226758209975
122.540489 0.004684048293875288
125.319153 0.004431074237412124
136.027451 0.006849635121177796
136.039276 0.17749110965378004
146.0242 0.008628510015033427
154.049194 0.007789022859509166
164.034058 0.12058967124651758
182.044846 0.010687751060638042
191.08136 0.038423053187392545
209.093002 0.008133841000165964
215.174622 0.005198052905415095
237.0867 0.480932684731485
244.198334 0.0047903940755731796
247.071442 0.019039117523367875
265.081543 1.0
283.09491 0.004126538589822709
549.28241 0.022094141797598197
549.367859 0.01893438304139268
573.42688 0.005380129774079666
END IONS

BEGIN IONS
CHARGE=1+
PRECURSORTYPE=M+H
FORMULA=C28H40N2O9
ONTOLOGY=
INCHIKEY=UIFFUZWRFRDZJC-UHFFFAOYSA-N
INCHI=InChI=1S/C28H40N2O9/c1-6-7-8-9-11-20-25(39-22(32)14-16(2)3)18(5)38-28(36)23(17(4)37-27(20)35)30-26(34)19-12-10-13-21(24(19)33)29-15-31/h10,12-13,15-18,20,23,25,33H,6-9,11,14H2,1-5H3,(H,29,31)(H,30,34)/t17-,18+,20-,23+,25+/m1/s1
SMILES=CCCCCCC1C(=O)OC(C)C(N=C(O)c2cccc(N=CO)c2O)C(=O)OC(C)C1OC(=O)CC(C)C
IONMODE=positive
INSTRUMENTTYPE=LC-ESI-Orbitrap
INSTRUMENT=Orbitrap
COMMENT=DB#=CCMSLIB00010110353; origin=GNPS
NUM_PEAKS=16
COMPOUND_NAME=Antipiricullin
PRECURSOR_MZ=549.281
COLLISION_ENERGY=102040
PARENT_MASS=548.2737235480092
52.181629 0.01170277304839625
136.039276 0.15801189847159436
142.959183 0.014804595001859136
144.569427 0.012348578250063602
164.033813 0.11101489265934754
177.197479 0.014383843128045559
191.080627 0.047706413041351106
198.692123 0.01246110491399049
236.114288 0.014276208927767667
237.06572 0.011766375075833186
237.086563 0.5230141490048729
265.081421 1.0
291.463226 0.014251746609522692
391.18454 0.014349595882502593
508.277405 0.03046047867864342
549.285034 0.05863617683320613
END IONS

BEGIN IONS
CHARGE=1+
PRECURSORTYPE=M+H
FORMULA=C20H14N2O4
ONTOLOGY=
INCHIKEY=LLCHTTWOCWRAQW-UHFFFAOYSA-N
INCHI=InChI=1S/C20H14N2O4/c21-9-15-17(13-6-5-11-3-1-2-4-12(11)7-13)19-18(26-20(15)22)16(24)8-14(10-23)25-19/h1-8,17,23H,10,22H2
SMILES=N#CC1=C(N)Oc2c(oc(CO)cc2=O)C1c1ccc2ccccc2c1
IONMODE=positive
INSTRUMENTTYPE=LC-ESI-Orbitrap
INSTRUMENT=Orbitrap
COMMENT=DB#=CCMSLIB00010110605; origin=GNPS
NUM_PEAKS=119
COMPOUND_NAME="2-amino-6-(hydroxymethyl)-4-(2-naphthyl)-8-oxo-4H-pyrano[3,2-b]pyran-3-carboni trile "
PRECURSOR_MZ=347.103
COLLISION_ENERGY=102040
PARENT_MASS=346.09572354800923
54.117371 0.0004582657580929999
55.018391 0.006705276024605119
67.018211 0.00643034611621986
68.997498 0.0007987888310795778
69.388733 0.0005002217462614112
83.012917 0.014906342120355184
88.485802 0.00048145973746779066
95.01252 0.000649283690141436
101.023422 0.0036321476236216943
126.191307 0.0005149949815319786
128.062332 0.000725365851784858
136.1978 0.00046343639043769846
141.070251 0.0005243021197524361
154.065277 0.0011905750304550245
155.048843 0.007537895564454296
165.069702 0.0018550751529251449
173.857422 0.0005398140167865318
174.018646 0.00736120767061831
175.725632 0.0004774709639447375
179.085403 0.0007775153722899608
181.064835 0.0010070914483945777
189.069107 0.002481608060749907
190.064514 0.007540407014450292
191.085037 0.0022397701993707195
192.080887 0.0009131336720737692
202.063034 0.0010939580717855139
203.086868 0.005413061135488591
204.080261 0.0039030887584838997
205.06427 0.0023437737756755134
206.059784 0.0009508054220137161
206.096802 0.0006710003459891701
207.04306 0.0018332107647247053
207.080597 0.002614714910537719
209.888046 0.0005980205637525672
213.902893 0.0004900282139247197
216.080276 0.006097800590279388
217.064209 0.001162358151088241
218.056778 0.006581476313037764
218.096588 0.0028178468955080203
219.03978 0.002328114146288712
219.090424 0.0031678248390677615
220.053314 0.0007095584900453509
220.074768 0.004517950810444914
222.055542 0.0009292364985186877
225.053635 0.002484414975451315
227.071167 0.0007148768547427551
228.080292 0.0069197834007337575
230.059494 0.01145176878468571
230.096008 0.01174368791363212
231.082138 0.007576305976157771
232.075439 0.010661548430063061
233.069534 0.0033600246299378433
234.054123 0.0006652387842336488
234.080826 0.0022035757729578294
235.078415 0.0030697305568711942
236.070984 0.0008326195398491771
239.069305 0.0035279963149641943
240.079102 0.003424731400422928
243.066147 0.000789186228153709
244.075256 0.008721231709626742
245.070709 0.0026649439104576484
245.108017 0.0010562863218455672
246.054626 0.06519428724901381
246.090179 0.009298569744000515
247.086807 0.015285423337397942
248.06929 0.004419413331190229
254.060318 0.000544689184425819
255.091278 0.002144778296580971
256.075439 0.018117600271118414
257.060516 0.002131186920132049
258.058411 0.001545723606359464
258.091064 0.0192368205752166
259.075531 0.002728321089768382
260.070129 0.005772937146679612
262.051758 0.0005928499314078686
262.087006 0.0009615898837612302
263.069489 0.006990251732974364
264.077515 0.008769540188961499
268.076691 0.0006101346166744325
271.058319 0.0007193088253239253
271.086334 0.0028528594630992652
272.036743 0.0006367264401614537
272.069702 0.01605555209205262
272.101685 0.0006262374431193509
273.076843 0.03256419930985354
273.101715 0.0028698486836604177
274.05191 0.0010847986659177622
274.08551 0.012405233389048129
275.068085 0.0051029709271593815
276.069977 0.0006259419784139396
276.101501 0.004080072117025297
277.085938 0.004147881266917201
281.079742 0.004291772578452527
282.088959 0.008411880163061061
283.085968 0.0029516924070593607
284.070251 0.013940615730718194
285.078003 0.0022690212052064425
286.050171 0.0010552521953766274
286.085876 0.028635996051409675
287.081909 0.0011162656570440706
289.096375 0.0031072545744584355
299.055237 0.004305216222548744
301.067047 0.0030472752392599316
301.102936 0.008638501592111564
302.080658 0.1437738643149252
303.063477 0.01279406494136946
303.09668 0.0007776631046426664
304.096039 0.0072217483296641545
311.080902 0.0029441580570713716
312.065033 0.029812684240710367
313.073029 0.021004142710634572
316.059998 0.0018856557499352194
319.106873 0.005549270364683222
329.062897 0.007452801729295828
329.091461 0.015529477184067716
330.0755 0.23849467823745849
344.055206 0.0023298869345211803
346.089111 0.0007003990841775991
347.102081 1.0
END IONS

BEGIN IONS
CHARGE=1+
PRECURSORTYPE=M+H
FORMULA=C24H18FN3O
ONTOLOGY=
INCHIKEY=SJMHENUYUCPNCC-UHFFFAOYSA-N
INCHI=InChI=1S/C24H18FN3O/c1-15-21(23(29)16-8-3-2-4-9-16)22(17-10-7-11-18(25)14-17)28-20-13-6-5-12-19(20)27-24(28)26-15/h2-15H,1H3,(H,26,27)
SMILES=CC1N=C2Nc3ccccc3N2C(c2cccc(F)c2)=C1C(=O)c1ccccc1
IONMODE=positive
INSTRUMENTTYPE=LC-ESI-Orbitrap
INSTRUMENT=Orbitrap
COMMENT=DB#=CCMSLIB00010103855; origin=GNPS
NUM_PEAKS=58
COMPOUND_NAME="4-(3-fluorophenyl)-2-methyl(1,2,5-trihydropyrimidino[1,2-a]benzimidazol-3-yl) phenyl ketone "
PRECURSOR_MZ=384.151
COLLISION_ENERGY=102040
PARENT_MASS=383.14372354800923
50.01569 0.0002839953917962106
51.02335 0.0004814633519243701
52.856331 0.00024273476366603236
53.039028 0.0016625255620798132
77.039047 0.000455963077419444
79.642868 0.0002445070122664623
92.049606 0.0002880276296833233
95.049171 0.0015940631518598424
103.054253 0.0004262555740941695
105.033409 0.17348802174403083
109.219704 0.0002978494612125969
112.155678 0.0002609487135679302
118.658463 0.0003169979371622005
133.06337 0.0098711715260234
133.07399 0.0005152440484615571
134.071121 0.14522510952794207
135.05632 0.0003662560232623862
146.052414 0.000594366012763526
147.060135 0.007334231163410018
155.047791 0.0005034451917078543
158.071121 0.01068325604542294
160.050446 0.004953017838531056
165.069519 0.0068266532071087245
171.002243 0.0003012077978461848
171.07869 0.0004318180518442585
173.039398 0.021647465618972867
183.060608 0.00046965704874797637
184.087036 0.0017833847255641767
185.075775 0.020988799746273573
199.07309 0.0037884680706926437
203.085007 0.0023163214743392698
209.075577 0.01139076300455173
209.093918 0.00026764677077837875
209.399277 0.0003920839403657111
209.419846 0.0008175017919071564
220.086273 0.0003459161196822415
221.074799 0.00030513206260427973
222.082535 0.00047392012573850643
223.091309 0.013111255244068715
231.079712 0.001121334453751877
233.07637 0.00359265321640186
236.062332 0.0005696625054865242
238.094757 0.0005307214380245558
240.092468 0.0005409118674770281
250.10202 0.0006205215724652496
251.086136 0.05727008693370849
264.093231 0.0011012849606566767
278.108459 0.0015074426399081552
279.115784 0.0013101273314451588
288.112427 0.011311343183342126
306.104034 0.0011406690902687527
351.117096 0.0006366430775910096
366.143311 0.0022651087022827277
382.132477 0.00038651401619293124
382.213593 0.000522839399606257
383.143982 0.0011363948436441864
384.14975 1.0
386.098267 0.00041553272541929915
END IONS

BEGIN IONS
CHARGE=1+
PRECURSORTYPE=M+H
FORMULA=C14H19NO4
ONTOLOGY=
INCHIKEY=YKJYKKNCCRKFSL-UHFFFAOYSA-N
INCHI=InChI=1S/C14H19NO4/c1-9(16)19-14-12(15-8-13(14)17)7-10-3-5-11(18-2)6-4-10/h3-6,12-15,17H,7-8H2,1-2H3
SMILES=COc1ccc(CC2NCC(O)C2OC(C)=O)cc1
IONMODE=positive
INSTRUMENTTYPE=LC-ESI-Orbitrap
INSTRUMENT=Orbitrap
COMMENT=DB#=CCMSLIB00010106572; origin=GNPS
NUM_PEAKS=66
COMPOUND_NAME=GNF-Pf-4325
PRECURSOR_MZ=266.139
COLLISION_ENERGY=102040
PARENT_MASS=265.13172354800923
55.01841 0.0002893634826674906
56.049919 0.004765295947409942
60.044868 0.016346009956040967
68.049881 0.0026704980490363348
68.672989 0.0002539497510021178
70.065529 0.006424656287033078
72.044647 0.0023066143891379487
72.410072 0.00027344243749143413
72.675636 0.00023070381431920643
78.046829 0.00036170435333436325
80.049789 0.0014105561735638491
84.04451 0.002268234379093767
91.054207 0.0022665393628773047
93.070312 0.000253344388067667
98.060097 0.02427172417533829
102.054939 0.0023061906350838332
104.261429 0.00026702559038625545
107.049744 0.0002828860992688669
109.064423 0.00031702856877189293
117.016121 0.00024420340775745965
118.065369 0.0005617768031703583
119.048782 0.0004861669726574513
119.085922 0.0002587321181842793
121.064796 0.40422795159227404
123.933098 0.0002261030560173802
129.069778 0.00036830280931987716
131.071976 0.00024686700466904326
132.056549 0.00041001231550353846
133.065262 0.00028149376451962996
135.080353 0.0018910327346374626
144.056595 0.005242503548637522
145.064819 0.021336077161012497
146.072723 0.0003009864510089463
147.068314 0.0018303148323120457
147.080353 0.022169238167697156
149.083572 0.0012963241878329798
149.096161 0.003491309651858198
150.09137 0.01698745252138505
150.101807 0.0002804041112376185
151.075516 0.0013635194735570205
156.080841 0.0004201824128023122
157.08847 0.0018180865010361392
159.08049 0.03757844898267548
160.075897 0.0012449894109915506
161.096069 0.009995813309945338
162.091537 0.0032443821108957094
163.07515 0.002074820921536731
163.09935 0.0010241530125038925
164.107071 0.00027301868343731855
171.080429 0.0076844770899186735
173.083771 0.005629330463751594
176.106949 0.0019486027497037353
177.090958 0.005312483503860036
178.122162 0.0004595310035416153
179.531433 0.0003092799232109225
184.54631 0.00026115356992208253
186.09111 0.0011633864874275805
188.106964 0.07985493809074341
189.090866 0.008382218408166685
191.094711 0.00041467361009880975
206.117569 0.26235327818557713
214.202988 0.00028984777301505125
224.127991 0.012459519380573273
248.128159 0.0009436397422219338
251.115738 0.0005422235803875969
266.138489 1.0
END IONS

BEGIN IONS
CHARGE=1+
PRECURSORTYPE=M+H
FORMULA=C24H25N3O5
ONTOLOGY=
INCHIKEY=FBRNSVONRJRESR-UHFFFAOYSA-N
INCHI=InChI=1S/C24H25N3O5/c1-31-17-11-16(12-18(13-17)32-2)25-22(28)15-27-21-8-4-3-7-19(21)20(14-23(27)29)24(30)26-9-5-6-10-26/h3-4,7-8,11-14H,5-6,9-10,15H2,1-2H3,(H,25,28)
SMILES=COc1cc(N=C(O)Cn2c(=O)cc(C(=O)N3CCCC3)c3ccccc32)cc(OC)c1
IONMODE=positive
INSTRUMENTTYPE=LC-ESI-Orbitrap
INSTRUMENT=Orbitrap
COMMENT=DB#=CCMSLIB00010114265; origin=GNPS
NUM_PEAKS=31
COMPOUND_NAME="N-(3,5-dimethoxyphenyl)-2-[2-oxo-4-(pyrrolidinylcarbonyl)hydroquinolyl]acetami de "
PRECURSOR_MZ=436.187
COLLISION_ENERGY=102040
PARENT_MASS=435.17972354800924
63.703171 0.002502075086195888
70.065483 0.019571654322564167
80.2967 0.002451195568892862
82.065338 0.01687404226790959
82.515663 0.0025659238922232154
84.081001 0.013694571255267527
91.152542 0.0025808884561358703
92.373421 0.0037211882262801685
98.06002 0.010579946686246967
100.840477 0.0027375175584216575
133.964813 0.0027395128336100117
146.059586 0.004130219639892734
154.086365 0.01097002298557017
157.965851 0.0037441338909462393
158.06015 0.013170811518324606
159.383514 0.0030098726216319753
160.075424 0.01355390435448857
166.086136 0.02326490869620738
166.568787 0.0026367561614097815
186.055038 0.0523071367002937
188.070312 0.012162199910611671
206.117722 0.0030866907163836035
218.117783 0.013802316115438642
227.117615 0.016634609245307113
243.112839 0.03801996871408505
255.11264 0.3297361847145958
283.107605 1.0
296.13736 0.009278029625845997
315.006805 0.0025798908185416932
436.187714 0.0985885423317584
455.452667 0.0028093474652024007
END IONS

BEGIN IONS
CHARGE=1+
PRECURSORTYPE=M+H
FORMULA=C18H17ClN2O2
ONTOLOGY=
INCHIKEY=XRCGDEXZISQQTC-UHFFFAOYSA-N
INCHI=InChI=1S/C18H17ClN2O2/c1-23-15-6-7-17-16(10-15)13(11-21-17)8-9-20-18(22)12-2-4-14(19)5-3-12/h2-7,10-11,21H,8-9H2,1H3,(H,20,22)
SMILES=COc1ccc2[nH]cc(CCNC(=O)c3ccc(Cl)cc3)c2c1
IONMODE=positive
INSTRUMENTTYPE=LC-ESI-Orbitrap
INSTRUMENT=Orbitrap
COMMENT=DB#=CCMSLIB00010111323; origin=GNPS
NUM_PEAKS=45
COMPOUND_NAME=(4-chlorophenyl)-N-[2-(5-methoxyindol-3-yl)ethyl]carboxamide
PRECURSOR_MZ=329.105
COLLISION_ENERGY=102040
PARENT_MASS=328.09772354800924
60.880798 0.0003940506791393089
68.316429 0.0004077017205237778
73.777977 0.0004390850424695156
73.956703 0.00043064109934510186
92.381706 0.000461602224134619
98.984123 0.00467991474432092
116.667084 0.0004174122551168536
117.069511 0.0009112421955096518
118.064949 0.0007530589943123006
121.30909 0.0004297967050326605
130.065781 0.0006843815902337353
131.072754 0.0021146448231240196
138.994293 0.06604007917604003
142.064774 0.002570477019456956
143.072662 0.008190484098295942
144.080429 0.002664767717679576
146.095718 0.0004988963062674464
147.080154 0.0009509287281943965
148.075409 0.0021063416123850128
156.021088 0.002110000654405592
157.980927 0.0005384421065667842
159.067551 0.03398757473769243
160.076004 0.00045161022477072934
162.090881 0.002429322436893839
165.538025 0.0004461216617398604
173.083466 0.0010853281562579822
173.499115 0.0008044263149858177
174.091095 1.0
174.686111 0.0007754354435919971
174.991684 0.0005232430089428395
176.989563 0.0006401916212159701
182.036392 0.010429114152963437
200.070038 0.0018967910905141447
253.000488 0.0004713127587276948
262.086365 0.0010784322693730443
264.620422 0.00048735625066408095
276.100037 0.0009505065310381757
277.109497 0.004502732671093639
282.031342 0.0005625073444713634
294.066986 0.007908878595096742
297.052856 0.004248992180205005
300.079346 0.0016643011898219524
311.093231 0.003730393339980593
312.077606 0.07914170132788043
329.104279 0.144543840600871
END IONS

BEGIN IONS
CHARGE=1+
PRECURSORTYPE=M+H
FORMULA=C6H14N2O3
ONTOLOGY=
INCHIKEY=YSMODUONRAFBET-UHFFFAOYSA-N
INCHI=InChI=1S/C6H14N2O3/c7-3-4(9)1-2-5(8)6(10)11/h4-5,9H,1-3,7-8H2,(H,10,11)
SMILES=NCC(O)CCC(N)C(=O)O
IONMODE=positive
INSTRUMENTTYPE=LC-ESI-Orbitrap
INSTRUMENT=Orbitrap
COMMENT=DB#=CCMSLIB00010102951; origin=GNPS
NUM_PEAKS=18
COMPOUND_NAME=5-hydroxylysine
PRECURSOR_MZ=163.108
COLLISION_ENERGY=102040
PARENT_MASS=162.10072354800926
55.055 0.06534044309856296
56.050201 0.06854066034138942
62.065399 0.002932531183123085
70.065903 0.005521451357630517
74.0243 0.10550348493700781
82.065697 0.6382605213279242
83.049599 0.0035128879282111205
84.081299 0.08113224108467808
92.392601 0.0043807071350005075
93.244003 0.0031684261714517692
99.092102 0.02748560629126448
100.075996 0.3450485367653311
118.675003 0.006539722461591633
127.086998 0.016632544610759557
128.070999 1.0
145.097 0.12332891715971463
146.080994 0.09415419303341754
163.108002 0.07447067633287525
END IONS

BEGIN IONS
CHARGE=1+
PRECURSORTYPE=M+H
FORMULA=C12H10N2O
ONTOLOGY=
INCHIKEY=SATMZMMKDDTOSQ-UHFFFAOYSA-N
INCHI=InChI=1S/C12H10N2O/c1-7-12-10(4-5-13-7)9-3-2-8(15)6-11(9)14-12/h2-6,14-15H,1H3
SMILES=Cc1nccc2c1[nH]c1cc(O)ccc12
IONMODE=positive
INSTRUMENTTYPE=LC-ESI-Orbitrap
INSTRUMENT=Orbitrap
COMMENT=DB#=CCMSLIB00010104498; origin=GNPS
NUM_PEAKS=22
COMPOUND_NAME=harmol///HarmolHCl2H2O///Harmol
PRECURSOR_MZ=199.087
COLLISION_ENERGY=102040
PARENT_MASS=198.07972354800924
50.065411 0.00010488748689346625
51.13903 9.901801364816874e-05
73.813423 0.00010485813952723976
73.944931 0.00010591464471139331
74.096718 0.0022340976013575857
84.959938 0.000193369796066326
92.370506 0.00017027341884608035
100.075684 0.0006212837430147399
104.276039 0.00016143986161190762
149.968079 0.0001365826424180727
152.94841 0.00014747051528809957
158.061264 0.0001685125768724911
159.00592 0.0011969029841810653
171.091797 0.002388053884581739
174.984314 0.00021033257374523576
175.983032 0.00040326215931816444
180.983444 0.00027334136903350435
182.084152 0.00023146267742830674
182.117294 0.0005270786974277151
184.063309 0.001054979121109772
198.077148 0.0010000701989000137
199.086533 1.0
END IONS

BEGIN IONS
CHARGE=1+
PRECURSORTYPE=M+H
FORMULA=C12H10N2O
ONTOLOGY=
INCHIKEY=SATMZMMKDDTOSQ-UHFFFAOYSA-N
INCHI=InChI=1S/C12H10N2O/c1-7-12-10(4-5-13-7)9-3-2-8(15)6-11(9)14-12/h2-6,14-15H,1H3
SMILES=Cc1nccc2c1[nH]c1cc(O)ccc12
IONMODE=positive
INSTRUMENTTYPE=LC-ESI-Orbitrap
INSTRUMENT=Orbitrap
COMMENT=DB#=CCMSLIB00010104499; origin=GNPS
NUM_PEAKS=21
COMPOUND_NAME=harmol///HarmolHCl2H2O///Harmol
PRECURSOR_MZ=199.087
COLLISION_ENERGY=102040
PARENT_MASS=198.07972354800924
66.742798 0.000190570476240193
74.096764 0.00447416729590719
82.39753 0.00018599760689929864
83.085716 0.00018692245687835593
96.046387 0.0001914439456648582
100.075653 0.001633901629667872
117.13681 0.0001946809205915587
125.002342 0.0007600211605675208
142.255035 0.00019185499009999479
158.002289 0.00031557936507610283
171.091629 0.0014863366774538428
174.984802 0.0003339222229940723
175.984177 0.0007562189995425076
176.013321 0.00024097480009881508
182.117096 0.0003999976159422762
184.063461 0.0010511433817529977
198.078873 0.0010065450605406796
198.362717 0.0015830862613741134
199.086502 1.0
199.814453 0.0014508840949233135
235.892365 0.00023059592811161664
END IONS

BEGIN IONS
CHARGE=1+
PRECURSORTYPE=M+H
FORMULA=C3H3N3O2
ONTOLOGY=
INCHIKEY=YZEUHQHUFTYLPH-UHFFFAOYSA-N
INCHI=InChI=1S/C3H3N3O2/c7-6(8)3-4-1-2-5-3/h1-2H,(H,4,5)
SMILES=O=[N+]([O-])c1ncc[nH]1
IONMODE=positive
INSTRUMENTTYPE=LC-ESI-Orbitrap
INSTRUMENT=Orbitrap
COMMENT=DB#=CCMSLIB00010111744; origin=GNPS
NUM_PEAKS=26
COMPOUND_NAME=2-Nitroimidazole
PRECURSOR_MZ=114.03
COLLISION_ENERGY=102040
PARENT_MASS=113.02272354800924
53.42976 0.00037749365136460826
55.934891 0.000408722393963339
56.013489 0.005790373896619423
56.03738 0.0028906820685705307
67.029343 0.005112962150076786
68.013428 0.0006100676121365736
68.037109 0.005045770723458489
69.008659 0.022869823711839182
72.937424 0.09429224865195292
77.486214 0.0003119820104117697
80.392303 0.0003467993860230685
83.024208 0.15372818120672596
83.83239 0.0006554981789978078
84.03199 0.6251462845164458
84.23233 0.0008528729946890522
86.035942 0.0006587813964348382
90.947723 0.03452348947373766
96.019234 0.07498410502814061
97.026894 0.0005576888409318566
104.284042 0.000560284873323927
108.958313 0.004889092533207645
113.714493 0.0008013341163170638
113.963676 0.012055898074881638
114.029732 1.0
114.346626 0.001417433686070507
131.974045 0.0045012147522747546
END IONS

BEGIN IONS
CHARGE=1+
PRECURSORTYPE=M+H
FORMULA=C16H16N4O3
ONTOLOGY=
INCHIKEY=GCFBQCLCBDJAGR-UHFFFAOYSA-N
INCHI=InChI=1S/C16H16N4O3/c1-3-10-14-13(8-4-5-11(21)12(6-8)22-2)9(7-17)15(18)23-16(14)20-19-10/h4-6,13,21H,3,18H2,1-2H3,(H,19,20)
SMILES=CCc1[nH]nc2c1C(c1ccc(O)c(OC)c1)C(C#N)=C(N)O2
IONMODE=positive
INSTRUMENTTYPE=LC-ESI-Orbitrap
INSTRUMENT=Orbitrap
COMMENT=DB#=CCMSLIB00010107954; origin=GNPS
NUM_PEAKS=24
COMPOUND_NAME="6-amino-3-ethyl-4-(4-hydroxy-3-methoxyphenyl)-4H-pyrano[3,2-d]pyrazole-5-carbo nitrile "
PRECURSOR_MZ=313.13
COLLISION_ENERGY=102040
PARENT_MASS=312.1227235480092
56.61319 0.004200074812562005
64.920433 0.003952054905915071
73.398193 0.00446232536959032
91.054382 0.054999430773984746
92.37043 0.006470880023419585
112.625504 0.0042326020134337335
149.022919 0.024212435148893263
161.044449 0.005423910745360808
164.081329 0.004850618829996585
189.058777 0.008932782539398573
189.076828 0.17617138582139313
191.367859 0.004966496983102119
215.079559 0.00717834664237969
219.075104 0.008843332737001317
230.081451 0.010640460585164343
231.111877 0.005413745995088393
232.084152 0.0075158163514238785
247.107193 1.0
248.11467 0.02920536048270366
248.899933 0.030477987216810058
248.969757 0.006757525981101696
266.909882 0.01069128433652642
286.117157 0.02280969961129995
313.128662 0.5042773269146323
END IONS

BEGIN IONS
CHARGE=1+
PRECURSORTYPE=M+H
FORMULA=C17H21ClN2O5
ONTOLOGY=
INCHIKEY=MCMRXZPGLBSFTP-UHFFFAOYSA-N
INCHI=InChI=1S/C17H21ClN2O5/c1-4-5-6-25-16(22)13-9(2)19-17(23)20-14(13)10-7-11(18)15(21)12(8-10)24-3/h7-8,14,21H,4-6H2,1-3H3,(H2,19,20,23)
SMILES=CCCCOC(=O)C1=C(C)N=C(O)NC1c1cc(Cl)c(O)c(OC)c1
IONMODE=positive
INSTRUMENTTYPE=LC-ESI-Orbitrap
INSTRUMENT=Orbitrap
COMMENT=DB#=CCMSLIB00010111892; origin=GNPS
NUM_PEAKS=56
COMPOUND_NAME="butyl 6-(3-chloro-4-hydroxy-5-methoxyphenyl)-4-methyl-2-oxo-1,3,6-trihydropyri midine-5-carboxylate "
PRECURSOR_MZ=369.121
COLLISION_ENERGY=102040
PARENT_MASS=368.1137235480092
53.562939 0.0011672409903065715
57.0704 0.010090556920481915
60.540821 0.001241754591328282
61.04002 0.013446166629062969
79.637917 0.0011643270506018117
82.401993 0.0015306508992001652
90.01622 0.0012438359768316817
92.381767 0.0014428164309566963
94.028603 0.0018911468683889994
105.688919 0.0012305151096099233
117.070427 0.0014161746965131797
137.034317 0.008630673128397342
144.057312 0.0013395797099880695
145.064575 0.009335846536949171
148.926682 0.0012609033379595595
155.044952 0.04483387629743165
165.010437 0.00534791191243528
173.059738 0.005394118670610753
174.067245 0.02490710776498327
177.009949 0.0425618358819205
178.989273 0.016601963329317647
183.020462 0.002223752271832277
186.03154 0.012714351486067622
187.015427 0.013807911429553843
189.078003 0.006083889826437426
192.021088 0.004747224056154116
193.005325 0.0050581830503620365
194.011948 0.005180152240861261
209.037216 0.017862450390176525
211.015472 0.12809345920442786
211.107544 0.0753773760056214
218.056915 0.002804458827280803
219.991455 0.004525348361491704
220.016006 0.004819656271672426
220.999847 0.032568271525897016
224.047119 0.10318593516234391
235.015335 0.50186117491714
238.002151 0.01398899196834962
239.010681 0.001775421834399974
243.079117 0.002602564433451029
245.996048 0.0022974333186526275
252.041901 0.19326455325557831
253.025879 1.0
254.059189 0.0012921241205105555
263.083221 0.0018794911095699608
270.053558 0.0015739437176708797
278.020172 0.008682707765982334
291.077179 0.0027087150941244153
295.04776 0.03134691451250205
296.031433 0.004718500936207199
309.088074 0.17863158061247683
326.114899 0.0988683090740915
326.159668 0.0026233782884850262
331.008392 0.001470290719601573
352.094238 0.005955260202327322
369.120697 0.6364731172411152
END IONS

BEGIN IONS
CHARGE=1+
PRECURSORTYPE=M+H
FORMULA=C20H21N5O4S
ONTOLOGY=
INCHIKEY=XQSRBHJKYQWLRM-UHFFFAOYSA-N
INCHI=InChI=1S/C20H21N5O4S/c1-10-13(23-19(29-10)12-7-6-8-14(27-4)16(12)28-5)9-30-20-24-15-17(25(20)3)21-11(2)22-18(15)26/h6-8H,9H2,1-5H3,(H,21,22,26)
SMILES=COc1cccc(-c2nc(CSc3nc4c(O)nc(C)nc4n3C)c(C)o2)c1OC
IONMODE=positive
INSTRUMENTTYPE=LC-ESI-Orbitrap
INSTRUMENT=Orbitrap
COMMENT=DB#=CCMSLIB00010106819; origin=GNPS
NUM_PEAKS=74
COMPOUND_NAME="8-{[2-(2,3-dimethoxyphenyl)-5-methyl(1,3-oxazol-4-yl)]methylthio}-2,9-dimethyl hydropurin-6-one "
PRECURSOR_MZ=428.139
COLLISION_ENERGY=102040
PARENT_MASS=427.13172354800923
52.535629 0.00021662528489600145
69.033813 0.0009535910499187297
73.943863 0.00029041902571397363
75.222687 0.00021764806716652083
76.986153 0.0002522692470236013
79.05452 0.0002795263945329424
92.363449 0.00020389164562803537
96.044098 0.0003922881398577024
98.530037 0.00021376149453854724
103.05394 0.0027844224532619184
104.049294 0.002032166093294926
105.069817 0.0023592518634070188
109.064888 0.00023304094033783725
117.069893 0.0003167045300663213
120.056488 0.00031834098169915227
121.064857 0.0013519136051724963
130.065582 0.003286199435178719
131.049026 0.002795008249761794
132.044571 0.0016394688405290158
133.064514 0.0004493593905526829
133.542679 0.00022721108139587689
135.080429 0.007188676327458881
137.059677 0.018079517639516707
144.057297 0.0002786570296030009
144.080673 0.00101408862121995
145.064835 0.0014428389490216678
146.061172 0.0002713441363687875
147.068268 0.00041611896676080356
148.052017 0.0011099233199676145
148.075516 0.0013050190380691834
149.047485 0.0010905927350547985
149.059509 0.0008450227119030991
150.055405 0.0003814977869037231
151.039734 0.00046418973347521367
157.052277 0.003727172011113143
158.060013 0.014164869638217364
159.067398 0.001009383822775561
160.052475 0.0007984349794809421
160.075439 0.0005257100870469535
161.059494 0.005096779749565624
161.083252 0.0004431204187025148
162.056564 0.001053056625726738
162.067474 0.019734737327011722
162.091309 0.0010716712630501903
163.075317 0.0033107973487847098
164.070465 0.04317424773341221
172.07605 0.002458512882760923
173.060608 0.0004429158622484109
174.055023 0.0010427776639080183
175.062088 0.001178500871205938
175.076599 0.0018761917970407226
188.069702 0.0027092479563787454
189.07869 0.0031193836468570105
190.086075 0.026947704733395438
197.049713 0.0011990587948433773
200.069885 0.003448719537964246
201.078751 0.000954664971302775
202.08725 0.002420925634319336
203.069717 0.0011375895803851634
204.066498 0.00035587709102721294
204.102951 0.0020212734621138945
215.092712 0.0003149658002064384
216.066406 0.0004651102375186811
217.072708 0.009038224646352575
218.080231 0.0028955988860673736
231.183029 0.001342708564737822
232.096603 1.0
233.014969 0.0011611647117206348
252.8367 0.00023431941817598646
273.122009 0.0018857548112700788
309.028809 0.00022143236156744247
331.843018 0.0002757421001320207
428.13797 0.32653285401665005
430.442291 0.000339717131153007
END IONS

BEGIN IONS
CHARGE=1+
PRECURSORTYPE=M+H
FORMULA=C5H10N2O3
ONTOLOGY=
INCHIKEY=ZDXPYRJPNDTMRX-VKHMYHEASA-N
INCHI=InChI=1S/C5H10N2O3/c6-3(5(9)10)1-2-4(7)8/h3H,1-2,6H2,(H2,7,8)(H,9,10)/t3-/m0/s1
SMILES=N=C(O)CC[C@H](N)C(=O)O
IONMODE=positive
INSTRUMENTTYPE=LC-ESI-Orbitrap
INSTRUMENT=Orbitrap
COMMENT=DB#=CCMSLIB00010126563; origin=GNPS
NUM_PEAKS=13
COMPOUND_NAME=L-glutamine
PRECURSOR_MZ=147.076
COLLISION_ENERGY=102040
PARENT_MASS=146.06872354800925
56.050301 0.004659601221704516
64.908096 0.0037611530625160506
80.808998 0.004154180774663389
82.415199 0.0038162488397475874
84.044899 1.0
85.028999 0.008657188764354111
92.149696 0.003893201907766812
96.0495 0.004157922556590967
101.070999 0.054699344720622226
102.055 0.03279955536100818
123.964996 0.008560067246028544
130.050003 0.6252430568294383
147.076004 0.03166837733242837
END IONS

BEGIN IONS
CHARGE=1+
PRECURSORTYPE=M+H
FORMULA=C30H30O8
ONTOLOGY=
INCHIKEY=JGABKNAYCZRLJE-UHFFFAOYSA-N
INCHI=InChI=1S/C30H30O8/c1-33-25-15-19(16-26(34-2)29(25)37-5)7-13-23(31)21-9-11-22(12-10-21)24(32)14-8-20-17-27(35-3)30(38-6)28(18-20)36-4/h7-18H,1-6H3/b13-7+,14-8+
SMILES=COc1cc(C=CC(=O)c2ccc(C(=O)C=Cc3cc(OC)c(OC)c(OC)c3)cc2)cc(OC)c1OC
IONMODE=positive
INSTRUMENTTYPE=LC-ESI-Orbitrap
INSTRUMENT=Orbitrap
COMMENT=DB#=CCMSLIB00010113643; origin=GNPS
NUM_PEAKS=96
COMPOUND_NAME="(2E)-1-{4-[(2E)-3-(3,4,5-trimethoxyphenyl)prop-2-enoyl]phenyl}-3-(3,4,5-trimet hoxyphenyl)prop-2-en-1-one "
PRECURSOR_MZ=519.201
COLLISION_ENERGY=102040
PARENT_MASS=518.1937235480093
53.038921 0.0012949115719143175
53.601631 0.0008940276630729968
70.588928 0.0009934302061709933
74.703857 0.0010871781135837742
82.3937 0.0009095035081062179
91.054176 0.0054469022268848165
92.372032 0.0009371814617233247
99.043953 0.004362700237345893
104.279472 0.0011270581757847667
105.033524 0.03633609368838493
119.049118 0.0070123434744760165
127.03923 0.0011940209667938959
133.028427 0.04121872279636615
143.049255 0.0057471931430102
147.044113 0.00660282880590463
152.046753 0.0020184073272173984
153.054291 0.0016297255269599638
154.062317 0.020422163195762
157.028351 0.018490063465845256
159.043976 0.002146975885954927
160.053421 0.001146402982076293
161.059967 0.0017332946437207503
162.067581 0.009632820695966608
163.038635 0.0024017321041941027
163.074783 0.0016737721628237465
166.062607 0.0011222963773130064
167.070465 0.005691242010967017
168.078201 0.00913491514326317
169.08577 0.01944658973386011
175.038742 0.020354307567539413
176.046738 0.0014886572472340648
177.054749 0.0024597665230686816
178.062103 0.012228893700289428
181.086105 0.0024160174996093837
183.043884 0.008438204504363741
189.054123 0.003981756359605068
190.06221 0.048590582055460074
191.033585 0.017683533849690854
191.070312 0.0047597151849289076
193.085907 0.032164758227122905
195.06543 0.0018746605358511343
195.163971 0.001083606764729954
206.056686 0.022275693250894697
207.064499 0.012138121916921497
221.080566 0.15753963825212236
237.090942 0.00470941868857094
238.098816 0.002167808754268878
239.069733 0.0023306027395221833
251.069855 0.0024014344917896177
254.093903 0.0014193135569890553
264.075439 0.0015207993869184467
265.085968 0.004840070534139863
266.09317 0.002216021963795451
267.06485 0.0018035311711792148
269.117065 0.0011800331837831
277.085449 0.001380623944406003
279.066162 0.0011431292456269577
281.08075 0.004215679709530293
282.088654 0.005877844988579124
286.083923 0.0020675133739574266
293.079407 0.0037954509943974465
295.096313 0.00149252620849237
297.112274 0.011420876022112602
298.083099 0.014953832875754261
305.08075 0.0067483612716978045
309.075073 0.0022175100258178763
309.112335 0.008205471604056457
310.083435 0.0012091991994226318
311.127197 0.0018788271095139246
314.078094 0.04111187994315603
319.096039 0.002060965901058756
320.105621 0.00196215858276973
321.075684 0.002227926459974852
325.106567 0.05037506603275225
329.101471 0.01322649048012321
333.111786 0.0013466961302947107
335.091919 0.0014663363168976884
336.100311 0.005825465205389761
343.116974 0.09368898015669293
351.122101 0.0636881617225806
429.132843 0.0016422252479483346
443.149292 0.0017871624889325387
455.148132 0.005567732863105734
457.128235 0.0016431180851617896
458.134003 0.0015806194802199356
471.143402 0.004349902903953037
472.152069 0.001117534578841246
473.157623 0.016276422401285684
477.192474 0.004698704642009479
487.171082 0.008729567048354576
488.179657 0.0036097408539987946
489.152405 0.003768665877993795
501.189789 0.01069261846833776
503.169525 0.0014017544251244392
504.17804 0.007375728220352224
519.200928 1.0
END IONS

BEGIN IONS
CHARGE=1+
PRECURSORTYPE=M+H
FORMULA=C21H24N2O3
ONTOLOGY=
INCHIKEY=FTDAWMRTACXJBX-UHFFFAOYSA-N
INCHI=InChI=1S/C21H24N2O3/c1-13-6-5-7-17-16(14(2)23-20(13)17)10-11-22-21(24)15-8-9-18(25-3)19(12-15)26-4/h5-9,12,23H,10-11H2,1-4H3,(H,22,24)
SMILES=COc1ccc(C(O)=NCCc2c(C)[nH]c3c(C)cccc23)cc1OC
IONMODE=positive
INSTRUMENTTYPE=LC-ESI-Orbitrap
INSTRUMENT=Orbitrap
COMMENT=DB#=CCMSLIB00010110171; origin=GNPS
NUM_PEAKS=39
COMPOUND_NAME="(3,4-dimethoxyphenyl)-N-[2-(2,7-dimethylindol-3-yl)ethyl]carboxamide "
PRECURSOR_MZ=353.186
COLLISION_ENERGY=102040
PARENT_MASS=352.1787235480092
53.03896 0.0006899850516196281
55.769371 0.0005346898245086189
65.039124 0.0005632610365052627
65.854851 0.0005000933909344517
67.964401 0.0005430473899226032
75.189217 0.0005259435351218912
79.05455 0.0014734582186840567
79.762756 0.000554514747118535
94.041 0.0006507239303725395
98.036568 0.0007815295472007112
108.930153 0.0006353693334491731
109.028442 0.0006209865464576654
109.044899 0.011123530842040265
109.064537 0.0010915369154636146
122.036133 0.0030285484716442383
126.030891 0.0036021106934272023
142.673859 0.0006137951529619115
155.070328 0.004457886519421913
157.088593 0.005880227535690206
160.113297 0.0009339093445161446
165.054703 1.0
166.058273 0.00253448030228731
167.060135 0.001475984924506889
171.104233 0.004345156567326312
172.112061 0.5056884894361345
182.081741 0.0031702383597092265
208.096619 0.007241733250224148
208.923019 0.00089173279347348
208.943085 0.0010474167445572327
215.117462 0.005369055511532566
306.721832 0.0006734642827780314
318.149231 0.0010431407808570547
320.074463 0.0027154313115993873
327.4198 0.0007154464718343243
335.060028 0.0009562609729488931
335.176392 0.0014917282454029988
336.15921 0.01867935306224112
338.707336 0.0005735622217829642
353.185638 0.2760653514968497
END IONS

BEGIN IONS
CHARGE=1+
PRECURSORTYPE=M+H
FORMULA=C17H19N3O3
ONTOLOGY=
INCHIKEY=NCXYJHRCPJFINE-UHFFFAOYSA-N
INCHI=InChI=1S/C17H19N3O3/c1-11-3-5-13(6-4-11)18-10-17(23)20-19-9-15-12(2)7-14(21)8-16(15)22/h3-9,18,21-22H,10H2,1-2H3,(H,20,23)/b19-9-
SMILES=Cc1ccc(NCC(O)=NN=Cc2c(C)cc(O)cc2O)cc1
IONMODE=positive
INSTRUMENTTYPE=LC-ESI-Orbitrap
INSTRUMENT=Orbitrap
COMMENT=DB#=CCMSLIB00010104666; origin=GNPS
NUM_PEAKS=27
COMPOUND_NAME="N-[(1Z)-2-(2,4-dihydroxy-6-methylphenyl)-1-azavinyl]-2-[(4-methylphenyl)amino] acetamide "
PRECURSOR_MZ=314.15
COLLISION_ENERGY=102040
PARENT_MASS=313.1427235480092
54.070518 0.0068522183561384835
65.836807 0.0065381202294441075
74.896271 0.006846119363387137
75.980339 0.007224256913970658
78.007294 0.007327939790743559
80.049561 0.04943233624966837
80.961449 0.007709126837702754
119.711388 0.007269999359605761
120.080711 0.9278306187733096
122.059937 0.011078820332822035
132.043976 0.010148723938241599
149.023331 0.03083345785443534
149.875687 0.006242319081003772
150.05484 0.18934932895832254
152.07016 0.010715930264116881
159.689514 0.007882948131116146
164.070404 0.011127612274832811
165.671509 0.007703027844951406
167.081329 1.0
178.096939 0.0077396218014594885
179.080719 0.09089328897332606
207.075851 0.03881703936594871
219.889603 0.009148489127020673
233.936462 0.007312692308865191
261.209839 0.007437721660267807
267.927979 0.013048794991507153
314.149139 0.9577034852694077
END IONS

BEGIN IONS
CHARGE=1+
PRECURSORTYPE=M+H
FORMULA=C8H10N4O2
ONTOLOGY=
INCHIKEY=RYYVLZVUVIJVGH-UHFFFAOYSA-N
INCHI=InChI=1S/C8H10N4O2/c1-10-4-9-6-5(10)7(13)12(3)8(14)11(6)2/h4H,1-3H3
SMILES=Cn1c(=O)c2c(ncn2C)n(C)c1=O
IONMODE=positive
INSTRUMENTTYPE=LC-ESI-Orbitrap
INSTRUMENT=Orbitrap
COMMENT=DB#=CCMSLIB00010104279; origin=GNPS
NUM_PEAKS=14
COMPOUND_NAME=caffeine
PRECURSOR_MZ=195.088
COLLISION_ENERGY=102040
PARENT_MASS=194.08072354800925
54.499489 0.0007919603248108253
56.20409 0.0008650243606343371
59.64463 0.00079189928783387
68.880234 0.0007923251594685352
69.045631 0.000923209246120978
81.790993 0.0008513964683250495
83.060722 0.0013272462894844874
92.355476 0.0011089239589355648
94.995293 0.0009366262834189656
110.071953 0.010191843435670667
138.066284 0.17960148225302175
157.359604 0.0008866841642293307
157.92775 0.00097944094834505
195.087799 1.0
END IONS

BEGIN IONS
CHARGE=1+
PRECURSORTYPE=M+H
FORMULA=C8H10N4O2
ONTOLOGY=
INCHIKEY=RYYVLZVUVIJVGH-UHFFFAOYSA-N
INCHI=InChI=1S/C8H10N4O2/c1-10-4-9-6-5(10)7(13)12(3)8(14)11(6)2/h4H,1-3H3
SMILES=Cn1c(=O)c2c(ncn2C)n(C)c1=O
IONMODE=positive
INSTRUMENTTYPE=LC-ESI-Orbitrap
INSTRUMENT=Orbitrap
COMMENT=DB#=CCMSLIB00010104280; origin=GNPS
NUM_PEAKS=18
COMPOUND_NAME=caffeine
PRECURSOR_MZ=195.088
COLLISION_ENERGY=102040
PARENT_MASS=194.08072354800925
52.667431 0.0002534467404856584
61.219028 0.0003100241440314494
61.611431 0.0002913986625101802
69.045021 0.0016482549776349023
83.060516 0.0012251761635092972
92.367638 0.00043159045890683043
110.071281 0.013058164875365989
111.054626 0.000378117302281251
123.043129 0.0005695792413601047
138.066101 0.23431456575741272
151.097961 0.0007000577490064157
156.077087 0.000653694319198095
180.064545 0.0017200532047894725
181.071075 0.0006085325333588883
194.385559 0.0005535573217719162
195.087402 1.0
195.793808 0.00044140388465459593
212.602905 0.0003238430496762621
END IONS

BEGIN IONS
CHARGE=1+
PRECURSORTYPE=M+H
FORMULA=C8H10N4O2
ONTOLOGY=
INCHIKEY=RYYVLZVUVIJVGH-UHFFFAOYSA-N
INCHI=InChI=1S/C8H10N4O2/c1-10-4-9-6-5(10)7(13)12(3)8(14)11(6)2/h4H,1-3H3
SMILES=Cn1c(=O)c2c(ncn2C)n(C)c1=O
IONMODE=positive
INSTRUMENTTYPE=LC-ESI-Orbitrap
INSTRUMENT=Orbitrap
COMMENT=DB#=CCMSLIB00010104281; origin=GNPS
NUM_PEAKS=34
COMPOUND_NAME=caffeine
PRECURSOR_MZ=195.088
COLLISION_ENERGY=102040
PARENT_MASS=194.08072354800925
50.475731 0.00019893076864782193
56.050171 0.0003052855302409215
56.280571 0.00020582014591701055
61.011101 0.0011101226768445733
64.439934 0.00022512475514004955
69.045128 0.001843626062973501
83.06076 0.001062112328999915
89.060043 0.0003396606522403107
104.266182 0.00030751022498409704
106.992287 0.00045383772760780155
106.999817 0.0004987622085506358
110.071243 0.011864153536661821
111.055038 0.0003151890100653802
116.005287 0.001576088579020009
123.043701 0.0004683341256117193
125.002518 0.0009721198384211384
136.18602 0.0002571316537031551
136.522369 0.0009414046980960058
138.066162 0.21967023421586257
139.00032 0.0002946644069509224
151.097794 0.0005083068666423242
156.077789 0.0004423554321591538
157.011078 0.0015330299710875801
165.033173 0.0008711474028195924
166.99527 0.005384550686296799
174.038208 0.0026404256027630995
180.063263 0.0018040121436756664
181.072098 0.000356453509333958
185.006088 0.005592667291303539
194.366898 0.00033535479144706777
194.386063 0.0010469700518770109
195.087509 1.0
195.792755 0.0011807387938537568
213.000626 0.0011241167244226127
END IONS

BEGIN IONS
CHARGE=1+
PRECURSORTYPE=M+H
FORMULA=C20H20N2O6
ONTOLOGY=
INCHIKEY=NSSFSSGVOUOLBK-UHFFFAOYSA-N
INCHI=InChI=1S/C20H20N2O6/c1-3-27-19(25)13-9-5-7-11-15(13)21-17(23)18(24)22-16-12-8-6-10-14(16)20(26)28-4-2/h5-12H,3-4H2,1-2H3,(H,21,23)(H,22,24)
SMILES=CCOC(=O)c1ccccc1NC(=O)C(=O)Nc1ccccc1C(=O)OCC
IONMODE=positive
INSTRUMENTTYPE=LC-ESI-Orbitrap
INSTRUMENT=Orbitrap
COMMENT=DB#=CCMSLIB00010113474; origin=GNPS
NUM_PEAKS=14
COMPOUND_NAME=ethyl 2-({N-[2-(ethoxycarbonyl)phenyl]carbamoyl}carbonylamino)benzoate
PRECURSOR_MZ=385.139
COLLISION_ENERGY=102040
PARENT_MASS=384.13172354800923
64.454399 0.0030770806926588455
79.789223 0.0031711919488415976
120.044296 0.014752832867939273
122.397369 0.0026732361882796938
146.023514 0.3885591685806593
148.039215 0.04428589808346596
164.034058 0.06013709270077862
166.086548 0.0038788132927979873
192.065186 0.12251022119719047
265.060303 0.8142851356631627
293.055115 1.0
339.096985 0.6641085877116908
385.1427 0.004039636325515348
385.292786 0.07208564839081665
END IONS

BEGIN IONS
CHARGE=1+
PRECURSORTYPE=M+H
FORMULA=C27H38N2O4
ONTOLOGY=
INCHIKEY=SGTNSNPWRIOYBX-UHFFFAOYSA-N
INCHI=InChI=1S/C27H38N2O4/c1-20(2)27(19-28,22-10-12-24(31-5)26(18-22)33-7)14-8-15-29(3)16-13-21-9-11-23(30-4)25(17-21)32-6/h9-12,17-18,20H,8,13-16H2,1-7H3
SMILES=COc1ccc(CCN(C)CCCC(C#N)(c2ccc(OC)c(OC)c2)C(C)C)cc1OC
IONMODE=positive
INSTRUMENTTYPE=LC-ESI-Orbitrap
INSTRUMENT=Orbitrap
COMMENT=DB#=CCMSLIB00010104515; origin=GNPS
NUM_PEAKS=70
COMPOUND_NAME=VERAPAMIL
PRECURSOR_MZ=455.29
COLLISION_ENERGY=102040
PARENT_MASS=454.28272354800924
52.396019 0.00020981884753753106
58.065578 0.015830234170302385
64.312393 0.0003613319705158018
64.315727 0.00029525896275495726
66.128082 0.00023526692013219508
70.065353 0.00028795158447978266
79.054512 0.0027698029695754495
81.070236 0.0002870828751743423
84.080994 0.00046261325542066943
86.096542 0.001689435196891942
91.05439 0.0014259096740592465
95.085854 0.0004583719099882254
96.080757 0.003928201278106451
103.054031 0.002397279979183681
105.061752 0.00045832080944084656
105.069809 0.01363193972261192
107.049004 0.0009241022987990043
107.085007 0.0008742281645572531
109.065071 0.0004001172859763439
110.096291 0.001305721186624207
118.041489 0.0005511194034808262
119.048958 0.0004488672081757605
120.057022 0.001560866219686772
121.064796 0.0020788724684661078
122.072548 0.0002696575885181567
122.096451 0.005165090027411356
123.080406 0.00027527864872982946
131.049866 0.000335475093542107
133.064819 0.014750275201997908
134.072525 0.006561974590559419
135.0439 0.00246447719898686
135.080353 0.007802644780370359
136.051987 0.0010180762054286974
137.060059 0.0012320852978512935
137.096283 0.001177152209419037
138.06781 0.00043793169103668807
139.075226 0.0021503621342491095
149.059341 0.0005183128520636087
150.067505 0.08933959798790572
151.075409 0.012038624655339582
152.083374 0.00038979497540581753
163.075211 0.000406607055493457
164.083313 0.00099365014378161
165.090973 0.5488014826517219
165.640015 0.0003431401756489335
175.074936 0.000544629633963713
176.071213 0.00027200821369758346
177.090744 0.01015572278607134
179.106598 0.0003177943041490272
190.086716 0.00033097824537276876
191.105759 0.00038366290972035634
194.118561 0.0004194843934329256
212.121017 0.0004821847650667664
217.10881 0.0016936254417770072
218.117004 0.004746985348757659
227.823532 0.00025739345714723426
229.145767 0.00036368259569522854
232.135071 0.00028468114944753666
233.154312 0.0022642652543565516
243.13739 0.003631511500024886
245.140442 0.0018127919182644701
260.164185 0.03997100146137345
261.159698 0.011207014347296285
264.197296 0.00026005068561093413
289.193634 0.00030614337934665087
303.206177 0.09492090197371776
440.268951 0.0010943182221179316
452.793945 0.0009140865915127509
455.289886 1.0
457.804108 0.0009574709562373891
END IONS

BEGIN IONS
CHARGE=1+
PRECURSORTYPE=M+H
FORMULA=C16H19N3O4S
ONTOLOGY=
INCHIKEY=AVKUERGKIZMTKX-UHFFFAOYSA-N
INCHI=InChI=1S/C16H19N3O4S/c1-16(2)11(15(22)23)19-13(21)10(14(19)24-16)18-12(20)9(17)8-6-4-3-5-7-8/h3-7,9-11,14H,17H2,1-2H3,(H,18,20)(H,22,23)/t9?,10-,11+,14-/m1/s1
SMILES=CC1(C)SC2C(N=C(O)C(N)c3ccccc3)C(=O)N2C1C(=O)O
IONMODE=positive
INSTRUMENTTYPE=LC-ESI-Orbitrap
INSTRUMENT=Orbitrap
COMMENT=DB#=CCMSLIB00010112744; origin=GNPS
NUM_PEAKS=194
COMPOUND_NAME=Ampicillin
PRECURSOR_MZ=350.117
COLLISION_ENERGY=102040
PARENT_MASS=349.10972354800924
53.039001 0.0011466685798337207
55.054661 0.0015826736037447167
58.995232 0.0011161851777382486
59.04961 0.0025578345576473464
66.75811 0.0012368871335102193
69.045036 0.0018810414484973683
70.028938 0.0009739293012927118
70.06543 0.039621340721606786
71.073479 0.0013406538658958164
72.081047 0.007139582266542557
73.788437 0.001218412344361448
74.006172 0.0014579687769905123
75.02652 0.01656973047438024
79.054527 0.006785790054343592
82.065109 0.0011097190015361786
83.049309 0.0014324119853347124
85.010834 0.0014832176554938326
85.394379 0.0009104991918819313
87.026413 0.12062805661537553
89.042061 0.005482085766745318
91.054321 0.012851987071342554
94.064613 0.0012217993890387229
97.039909 0.0010004098324059502
98.059891 0.00405336873924036
101.059853 0.0016556490208823622
102.634956 0.0009779321722749455
104.052467 0.0020651735136801193
105.036903 0.002180025119554979
106.065033 0.43741526614935206
107.068382 0.01065533464155368
109.075722 0.0016716605048112969
113.034508 0.006229083074660626
113.107292 0.0013372668212185417
114.037109 0.15266026186781967
115.021111 0.05009500660319755
115.040352 0.0020232973249429053
116.070358 0.029343199691840516
118.064842 0.010351732273208876
119.70285 0.0011472844061386797
120.080551 0.0018034473340725302
123.026192 0.009420294986958339
126.036957 0.00223698905276369
128.052658 0.009276499544750403
130.065781 0.0015780549064575238
132.04451 0.004521088817856746
133.031555 0.02288595297119257
134.05954 0.0021052022235024566
139.086426 0.005303804051459677
142.031921 0.006648768701490207
143.06369 0.006888633047271751
145.07637 0.004491221242066233
146.059967 0.021589022772948843
147.091263 0.0020959648289280712
150.057693 0.005026682214228113
151.086182 0.00635994616446442
154.031952 0.0017584920138105206
155.081192 0.0013569732629772307
156.047272 0.002328747172202586
157.075287 0.004412087561878997
158.059753 0.005802007532171536
160.042511 1.0
161.046219 0.021124073912704773
163.086304 0.03276288316327803
165.064972 0.0013018568086833973
171.058197 0.006238628382387491
172.042191 0.0021224453600413094
173.070709 0.051083099909504326
174.055923 0.01591972580949598
175.085815 0.008069479987030698
182.026428 0.002009441233081327
183.075699 0.00139577032018965
185.070816 0.009784864159494087
186.054962 0.0014050077147640353
187.051865 0.002203118605990943
189.050446 0.0017745034977394555
189.068298 0.013210397980828712
190.031158 0.0011974742499928411
190.097305 0.004162677908370588
191.081406 0.0666074652312166
192.084045 0.0016513382367476489
200.03772 0.014915928932412755
201.065582 0.09826863513492293
202.067841 0.0019466269499755055
202.096649 0.0019281521608267346
203.080673 0.005918090790656314
208.107803 0.12012954522151119
209.110825 0.0056714523555202205
210.021454 0.0013461963026404477
213.065292 0.02616184100042215
214.096924 0.0011007895201142726
215.080597 0.0016756633757935306
217.040466 0.005430356357128759
217.063705 0.10005145228777933
218.027252 0.01233838793300672
218.067245 0.004003178895386199
218.092941 0.006168116270469682
222.570419 0.00455680674354437
225.103806 0.0010893967334725306
227.046967 0.0023915614553084072
227.080353 0.0016399454501059068
227.11824 0.0013132495953251393
231.122742 0.0016319397081414394
234.090149 0.0013751401389735223
241.060486 0.01209636819515782
244.075287 0.0016267051845492875
244.600815 0.0020269922827726595
245.058121 0.009096062437397407
245.105377 0.0011479002324436389
248.102676 0.01931723953395497
251.115723 0.002066713079442517
253.095291 0.0010727694232386367
255.111908 0.007245196477843031
259.039368 0.0024774692248501927
259.070435 0.06985564107672303
260.074005 0.0017837408923138411
261.10199 0.0012642914040808962
262.088715 0.0014321040721822329
267.077576 0.004908135650523499
270.055847 0.0013508149999276403
272.073547 0.0012458166149321253
275.05426 0.001214717386531694
275.113678 0.0018459393491147035
275.59021 0.00158051821167736
278.128784 0.0013391143001334187
279.113861 0.005910085048691846
284.104034 0.002151697109526864
287.083984 0.019923212618034657
288.05426 0.0018856601457845612
288.553772 0.0014613558216677869
289.098877 0.017861426149031814
296.138428 0.014961807992132203
297.059357 0.0017215424355129787
297.560181 0.0014028523226966788
299.103088 0.009101296960989559
304.110962 0.0040635298732721835
305.095764 0.010066296780860365
306.064667 0.025690733877128488
306.122314 0.005724105504594218
306.565704 0.014317653677145053
307.068054 0.0011814627660639062
307.108246 0.005866361381039755
308.139313 0.0023546118770108653
308.566895 0.0015952980429963768
310.086731 0.0015601959436137118
315.075134 0.00463286129220681
316.062775 0.002336137087862094
318.600433 0.0023564593559257424
322.119781 0.005199421492769122
324.089355 0.0023028824673943064
324.134033 0.023289627114093214
327.113495 0.021975145866158157
327.607788 0.010774189118410774
328.108643 0.0014628953874301846
332.106659 0.00185456091738413
333.089478 0.36527090661024875
334.089966 0.021753756309525387
336.123352 0.00502791386683803
341.603546 0.012438459707562563
342.10498 0.0012901561088891757
349.131561 0.0025208849793498045
350.11618 0.17653461605847148
350.197815 0.007013953700330915
350.617767 0.02494866317965285
353.159668 0.014259458091326425
360.101868 0.0011054082174014655
361.130188 0.001980805309900732
363.147095 0.0018893551036143154
364.127472 0.015013845314901242
367.143585 0.02533940497014936
376.093689 0.004050905434020524
381.154266 0.031496744280282256
382.159515 0.0019761866126135393
388.094238 0.0012562856621164287
390.110901 0.0023253601275253113
391.139252 0.004925070873909872
392.140869 0.001572820382865372
407.136536 0.017325349350564973
408.166595 0.009449546736443893
409.164673 0.001413629283033462
425.125122 0.005361691724125827
434.147247 0.006301442665493312
438.144623 0.00252365619772212
455.169434 0.0025458259447006452
466.140747 0.0017033755595166871
483.171143 0.0014059314542214738
494.188934 0.0011990138157552386
495.168304 0.0017301640037824051
522.172607 0.0018160717733241903
523.163757 0.002499946884981197
540.191772 0.03812272740848898
541.191223 0.002347837787656316
567.20575 0.011988598591789988
568.202942 0.0013120179427152214
584.157104 0.0016504144972902103
END IONS

BEGIN IONS
CHARGE=1+
PRECURSORTYPE=M+H
FORMULA=C30H22FN3O3
ONTOLOGY=
INCHIKEY=LCFQUJGFDLRXLW-UHFFFAOYSA-N
INCHI=InChI=1S/C30H22FN3O3/c31-22-17-15-20(16-18-22)19-34-25-14-8-7-13-24(25)26(29(36)32-23-11-5-2-6-12-23)27(30(34)37)33-28(35)21-9-3-1-4-10-21/h1-18H,19H2,(H,32,36)(H,33,35)
SMILES=O=c1c(N=C(O)c2ccccc2)c(C(O)=Nc2ccccc2)c2ccccc2n1Cc1ccc(F)cc1
IONMODE=positive
INSTRUMENTTYPE=LC-ESI-Orbitrap
INSTRUMENT=Orbitrap
COMMENT=DB#=CCMSLIB00010112525; origin=GNPS
NUM_PEAKS=13
COMPOUND_NAME={1-[(4-fluorophenyl)methyl]-2-oxo-3-(phenylcarbonylamino)(4-hydroquinolyl)}-N- benzamide
PRECURSOR_MZ=492.172
COLLISION_ENERGY=102040
PARENT_MASS=491.16472354800925
53.03912 0.006992291241320239
80.181252 0.006493996218344799
95.049683 0.0075363755366772076
105.03347 0.3710223936476812
109.044777 0.16140179817166128
118.639374 0.008500643743299952
180.080338 0.009200950262076247
207.593063 0.040176046284873916
219.501358 0.008511417689742664
303.221283 0.008915440681344373
355.124908 0.0075740843492267
399.113495 1.0
492.1698 0.028071517456486724
END IONS

BEGIN IONS
CHARGE=1+
PRECURSORTYPE=M+H
FORMULA=C28H32O16
ONTOLOGY=
INCHIKEY=LVAKTTFHRFASRZ-UHFFFAOYSA-N
INCHI=InChI=1S/C28H32O16/c1-9-18(32)21(35)23(37)27(41-9)44-28-24(38)22(36)19(33)16(43-28)8-40-26-20(34)17-13(31)6-11(29)7-15(17)42-25(26)10-3-4-12(30)14(5-10)39-2/h3-7,9,16,18-19,21-24,27-33,35-38H,8H2,1-2H3/t9-,16-,18-,19+,21+,22+,23+,24-,27-,28?/m0/s1
SMILES=COc1cc(-c2oc3cc(O)cc(O)c3c(=O)c2OCC2OC(OC3OC(C)C(O)C(O)C3O)C(O)C(O)C2O)ccc1O
IONMODE=positive
INSTRUMENTTYPE=LC-ESI-Orbitrap
INSTRUMENT=Orbitrap
COMMENT=DB#=CCMSLIB00010113676; origin=GNPS
NUM_PEAKS=39
COMPOUND_NAME=CCG-208435
PRECURSOR_MZ=625.176
COLLISION_ENERGY=102040
PARENT_MASS=624.1687235480093
50.146221 0.0005277201594670077
57.033932 0.007456431021979789
61.028721 0.0014314430420847967
65.041542 0.0005928624624904375
69.033653 0.0031516386242553146
71.049477 0.05965313580026897
73.02887 0.0008090471520578302
75.044022 0.0037372443016939192
81.033661 0.001266055847880234
83.049004 0.003915457441571489
85.028587 0.10509377369530178
87.044006 0.0027812050617257076
90.722847 0.0006652615505657001
91.038727 0.0007521742087446286
92.378998 0.00072466593052489
97.028191 0.006727883555264384
99.043777 0.0007484614349971792
109.027977 0.0010576342306938718
111.043732 0.002974775583922272
114.114372 0.0006421410958656745
118.658234 0.0006971576523051515
127.039062 0.006991321728890223
129.054489 0.0393667088066487
129.065491 0.001280063130654702
139.038803 0.0008335177063023828
145.049347 0.007520898275230956
147.065094 0.016903415059921635
185.397552 0.0008471874641907191
192.320557 0.0005449339286597275
255.085693 0.0013315356757897957
257.043549 0.000905072982162316
285.039429 0.0049349513601324715
302.041412 0.016341436124512256
317.064972 1.0
359.073303 0.0013806455467219667
461.106873 0.001052065070072698
463.121887 0.006768724066486327
479.117584 0.12574911538946407
625.175781 0.022996920591701376
END IONS

BEGIN IONS
CHARGE=1+
PRECURSORTYPE=M+H
FORMULA=C16H14O4
ONTOLOGY=
INCHIKEY=FUQGIYDZGLORRC-UHFFFAOYSA-N
INCHI=InChI=1S/C16H14O4/c1-20-13-6-2-11(3-7-13)4-8-15(18)14-10-12(17)5-9-16(14)19/h2-10,17,19H,1H3/b8-4+
SMILES=COc1ccc(C=CC(=O)c2cc(O)ccc2O)cc1
IONMODE=positive
INSTRUMENTTYPE=LC-ESI-Orbitrap
INSTRUMENT=Orbitrap
COMMENT=DB#=CCMSLIB00010104105; origin=GNPS
NUM_PEAKS=80
COMPOUND_NAME="2',5'-DIHYDROXY-4-METHOXYCHALCONE "
PRECURSOR_MZ=271.096
COLLISION_ENERGY=102040
PARENT_MASS=270.0887235480092
51.36237 0.000401938909787128
51.364571 0.0002571433715903652
55.01849 0.0013067234645295946
58.971779 0.0002645206917575577
60.533989 0.00028777800618294455
68.997803 0.0013595525792861854
69.033913 0.0006196948940441769
77.038963 0.0005602386950695994
79.054741 0.001500346859087183
81.033829 0.004381002825388585
85.028664 0.00025570541935438694
89.039177 0.0003141613037300231
91.054314 0.0026224497604496614
93.070343 0.00046414597390879433
96.020599 0.00033898160971625575
102.046829 0.0003466090085331837
103.054367 0.0016290123243760163
104.2826 0.00041656851079664557
105.069946 0.04847618325963515
107.049271 0.007594138356513123
109.028191 0.00043526188986436236
109.065178 0.0005100979257976634
111.043854 0.0024011926750963177
115.054466 0.001943736305067944
118.041183 0.0043559324407526166
119.049583 0.0005931865571722307
121.064934 0.004561747169484803
123.044113 0.09602657535795008
127.040527 0.0002705850990136398
131.04982 0.0006787134553817175
133.064926 0.010214462448440034
133.798935 0.00027877517479247226
135.044144 0.008013645291444159
135.080704 0.0006194448153944416
136.60881 0.0011864356340068952
137.023453 0.7733809157980185
137.440491 0.0011770576846418198
139.039383 0.0016376400377918856
141.069656 0.0005418579143140517
145.065552 0.00044870361728763697
146.036209 0.018323325185770924
147.044266 0.0030251389061859953
148.051941 0.002104474357185335
149.059967 0.0014138196462787547
155.034149 0.0049200473548931135
157.064972 0.0012907809506089666
159.08075 0.0004611450301119702
160.052307 0.0005406700407278089
160.518463 0.00028196367757659784
160.531708 0.0016056299706257617
161.059799 1.0
161.590332 0.0015703063613506448
163.038864 0.02122817626143422
165.054626 0.0021482381208890195
165.069794 0.0013851231212216241
169.064987 0.012183269138143946
173.059769 0.0005554872007246279
173.09549 0.0005963750599563563
183.080704 0.006109046295059796
187.076401 0.0006099418267044986
193.064392 0.0004231330753521983
197.059677 0.027146162468096216
201.091003 0.006397324458542211
211.074982 0.0076410281033385
211.097961 0.00037530553359031417
214.06485 0.00027452383774697144
225.090546 0.0012490178161031645
227.070572 0.0006478287421394028
229.085892 0.10998196432778108
237.054428 0.0006405139416346441
238.063385 0.0015684932911400635
239.070251 0.00039487418793210464
241.049759 0.0017586155846013572
243.101761 0.0017144767029230693
253.086105 0.004481471922919758
256.072876 0.012380456153460263
269.452118 0.0002986564274464319
269.944031 0.00132898046435604
271.096222 0.8210016425165715
272.257172 0.0010285109666990269
END IONS

BEGIN IONS
CHARGE=1+
PRECURSORTYPE=M+H
FORMULA=C16H16ClN3O
ONTOLOGY=
INCHIKEY=DQWVBJJWBWNKEX-UHFFFAOYSA-N
INCHI=InChI=1S/C16H16ClN3O/c17-14-5-6-15(18-9-14)19-16(21)11-20-8-7-12-3-1-2-4-13(12)10-20/h1-6,9H,7-8,10-11H2,(H,18,19,21)
SMILES=OC(CN1CCc2ccccc2C1)=Nc1ccc(Cl)cn1
IONMODE=positive
INSTRUMENTTYPE=LC-ESI-Orbitrap
INSTRUMENT=Orbitrap
COMMENT=DB#=CCMSLIB00010104103; origin=GNPS
NUM_PEAKS=24
COMPOUND_NAME="N-(5-chloro(2-pyridyl))-2-(2-1,2,3,4-tetrahydroisoquinolyl)acetamide "
PRECURSOR_MZ=302.105
COLLISION_ENERGY=102040
PARENT_MASS=301.09772354800924
73.945473 0.00042416698033292087
82.390701 0.0005547997497230306
104.278938 0.0005067452595393493
105.069893 0.0010695199225223852
117.069687 0.0040614039619533086
119.085281 0.003300302021650762
129.021469 0.007210695158223099
129.069687 0.002187319846914467
131.072906 0.0020701562754981964
134.096313 0.07100077576019989
141.008774 0.0006872571136636301
141.021255 0.01696085691160516
144.080566 0.002057384113644769
146.096298 0.7830665325077145
146.554092 0.0005726766761053558
168.448364 0.000496720240042839
169.016159 0.7643174909323801
171.012726 0.0007830380770331519
172.075607 0.0017351074132661555
174.09111 0.032329006789131816
213.364319 0.0005180003427777628
218.019684 0.0005139206313671174
300.752411 0.000601665178289539
302.104889 1.0
END IONS

BEGIN IONS
CHARGE=1+
PRECURSORTYPE=M+H
FORMULA=C6H6N4O2S
ONTOLOGY=
INCHIKEY=ABNKHLJAVYVWBF-UHFFFAOYSA-N
INCHI=InChI=1S/C6H6N4O2S/c1-13-6-9-3-2(4(11)10-6)7-5(12)8-3/h1H3,(H3,7,8,9,10,11,12)
SMILES=CSc1nc(O)c2nc(O)[nH]c2n1
IONMODE=positive
INSTRUMENTTYPE=LC-ESI-Orbitrap
INSTRUMENT=Orbitrap
COMMENT=DB#=CCMSLIB00010112803; origin=GNPS
NUM_PEAKS=35
COMPOUND_NAME="2-methylthiopurine-6,8-diol "
PRECURSOR_MZ=199.028
COLLISION_ENERGY=102040
PARENT_MASS=198.02072354800924
52.049011 0.0005223854017025016
52.40646 0.000478287932727615
65.229309 0.0005412540302542558
70.040443 0.0011446261297856355
74.006607 0.00292145731958623
74.096817 0.018201018312322022
83.085876 0.0008007506746064725
84.735443 0.0005183572675172955
98.035141 0.006522397274097994
100.075897 0.004278514525875886
104.27018 0.0006599779851866425
113.674202 0.0006152444950246182
123.030373 0.0024137004051878975
125.002388 0.0011980519095052095
126.029709 0.011494810915141205
143.03862 0.00941099349901544
144.023483 0.0008020227169807481
151.025116 0.03870888547039279
152.033768 0.0009837127694397757
153.979996 0.000575387167297317
158.002487 0.0007401166547660035
169.03569 0.025485580975673463
170.356277 0.0005533384328098738
171.033508 0.1113461091615884
176.013947 0.0006949591504792208
184.005356 0.0031008152943590855
199.028442 1.0
199.180573 0.010702964537154662
209.016678 0.0005887436122272105
222.479111 0.0007767938765576159
224.349014 0.0006042201277808967
240.055069 0.0008868255419324528
285.910614 0.000649801646192438
302.374847 0.00058026332973204
314.295074 0.0006188486150850657
END IONS

BEGIN IONS
CHARGE=1+
PRECURSORTYPE=M+H
FORMULA=C17H15ClO4
ONTOLOGY=
INCHIKEY=VWGNKHPAHTYIRK-UHFFFAOYSA-N
INCHI=InChI=1S/C17H15ClO4/c1-20-15-5-3-10(7-17(15)21-2)16-9-13(19)12-8-11(18)4-6-14(12)22-16/h3-8,16H,9H2,1-2H3
SMILES=COc1ccc(C2CC(=O)c3cc(Cl)ccc3O2)cc1OC
IONMODE=positive
INSTRUMENTTYPE=LC-ESI-Orbitrap
INSTRUMENT=Orbitrap
COMMENT=DB#=CCMSLIB00010112567; origin=GNPS
NUM_PEAKS=70
COMPOUND_NAME="2-(3,4-dimethoxyphenyl)-6-chlorochroman-4-one "
PRECURSOR_MZ=319.073
COLLISION_ENERGY=102040
PARENT_MASS=318.0657235480092
58.682259 0.0007000291473836842
73.945862 0.0009523938364967058
82.389511 0.001000357885597134
91.099792 0.0006321415701953858
98.999397 0.0028709558005138303
105.069817 0.0011088304274088714
124.052063 0.005074596394825294
125.015297 0.001386529973226222
126.994537 0.0037999825361667377
129.010025 0.008008520382876097
133.06456 0.0014035018675232964
135.044586 0.0008257195529750624
137.059341 0.008934595484738208
138.067093 0.0010409428502205732
139.075562 0.006791955322103187
141.009964 0.008179469173259674
148.052155 0.0034954723167496607
150.068054 0.0017006330024633843
150.965714 0.000884014320343275
151.075211 0.014163414745132571
152.078384 0.007593569865786752
153.009949 0.004263389041321643
154.989304 0.371200663133725
157.949142 0.0007839047409387917
160.051498 0.0010916125636292306
161.05983 0.001643322113025437
163.075241 0.021621947364990426
164.083298 0.0009519018975315733
165.054733 0.0027046804302990127
165.090729 0.01468782168196392
167.068741 0.001153104934270805
173.000061 0.0032566359491777853
176.046616 0.0061733420734489475
176.060883 0.0007120816520294327
181.004944 0.07491492530521739
191.070053 0.14997005321549756
195.080261 0.0011012053734493162
217.041016 0.000994454618015543
223.074387 0.0014025179895930313
235.075485 0.0017702423660296467
238.098526 0.004463116261165477
239.026688 0.0010298742235050897
241.086349 0.0012357506804130812
242.048599 0.003663961412307575
245.036652 0.000979696449061565
251.07193 0.001597079850302973
253.085449 0.001187048722864954
255.020523 0.0014524497945539896
255.100433 0.007809777040962528
258.043213 0.004076944173536389
265.085205 0.0015355874796613984
266.093628 0.004463362230648043
269.034393 0.0016957136128120584
269.080048 0.007994746091852384
270.043945 0.01112175612371773
272.854156 0.0013498805203238434
273.068359 0.0035562267789435364
277.063019 0.0039706853570677485
283.095825 0.019517678441635745
284.103973 0.01418014066994708
286.038971 0.00313143748255154
287.047943 0.0010426646365985371
288.051422 0.0030436263772753713
289.0271 0.0011681090727073491
291.078644 0.001007736970074123
301.06189 0.026223544444840728
304.049835 0.00846012035286782
318.061066 0.0028165965448666785
319.072632 1.0
319.218689 0.014010421726976334
END IONS

BEGIN IONS
CHARGE=1+
PRECURSORTYPE=M+H
FORMULA=C19H18N2O4
ONTOLOGY=
INCHIKEY=BDWXGEIHUXSMQS-UHFFFAOYSA-N
INCHI=InChI=1S/C19H18N2O4/c1-13(22)21-16(19(23)20-11-14-5-3-2-4-6-14)9-15-7-8-17-18(10-15)25-12-24-17/h2-10H,11-12H2,1H3,(H,20,23)(H,21,22)/b16-9+
SMILES=CC(O)=NC(=Cc1ccc2c(c1)OCO2)C(O)=NCc1ccccc1
IONMODE=positive
INSTRUMENTTYPE=LC-ESI-Orbitrap
INSTRUMENT=Orbitrap
COMMENT=DB#=CCMSLIB00010110509; origin=GNPS
NUM_PEAKS=28
COMPOUND_NAME="(2E)-3-(2H-benzo[3,4-d]1,3-dioxolen-5-yl)-2-(acetylamino)-N-benzylprop-2-enami de "
PRECURSOR_MZ=339.134
COLLISION_ENERGY=102040
PARENT_MASS=338.12672354800924
56.92189 0.0013134723394500193
65.039207 0.002331009617889483
65.940033 0.0014921796034053374
73.952904 0.0015494909708545646
82.399261 0.0018464680567278336
91.054466 0.5788885762814301
92.37867 0.001938687257077954
104.049507 0.0016015922139902257
108.080841 0.6942297873227256
132.044556 0.015278689549532652
135.044617 0.0017547698688090698
147.044022 0.014132462200548104
160.039215 0.01044994633571957
162.055023 0.48428991215730405
164.070358 0.016685944126626863
174.055145 0.010201423405962466
177.054657 0.0758177290110142
190.04982 0.027539675096647807
204.065384 0.01764408598789167
206.080841 0.010438484062229724
232.06041 1.0
252.101257 0.0030567799347692437
257.862274 0.001581272729167318
273.80368 0.0017328873466920921
285.967316 0.0015437598341096418
297.122986 0.02885418946096054
315.884491 0.006550689299446685
339.135315 0.017940021048902226
END IONS

BEGIN IONS
CHARGE=1+
PRECURSORTYPE=M+H
FORMULA=C24H19Cl2N3O3
ONTOLOGY=
INCHIKEY=FMBYXXBOTCCMFU-UHFFFAOYSA-N
INCHI=InChI=1S/C24H19Cl2N3O3/c1-14-19(12-23(30)28-22-10-7-17(26)13-27-22)20-11-18(32-2)8-9-21(20)29(14)24(31)15-3-5-16(25)6-4-15/h3-11,13H,12H2,1-2H3,(H,27,28,30)
SMILES=COc1ccc2c(c1)c(CC(O)=Nc1ccc(Cl)cn1)c(C)n2C(=O)c1ccc(Cl)cc1
IONMODE=positive
INSTRUMENTTYPE=LC-ESI-Orbitrap
INSTRUMENT=Orbitrap
COMMENT=DB#=CCMSLIB00010108684; origin=GNPS
NUM_PEAKS=37
COMPOUND_NAME=N-(5-chloro(2-pyridyl))-2-{1-[(4-chlorophenyl)carbonyl]-5-methoxy-2-methylindo l-3-yl}acetamide
PRECURSOR_MZ=468.088
COLLISION_ENERGY=102040
PARENT_MASS=467.08072354800925
75.023232 0.002041799519615732
78.491859 0.00045107661265126936
82.396263 0.0005881250261125293
86.999893 0.0078689452362181
93.037773 0.0005517677581529325
110.999603 0.0026718278376138983
129.010757 0.0025570867648329336
129.021149 0.0400897420618219
138.571274 0.0006188130251699517
138.9944 1.0
139.419525 0.0008311641190492242
151.279861 0.0004971702337254701
153.021606 0.0008476789458512105
154.987656 0.000826727299908392
155.000427 0.011951311825688222
171.03241 0.0008003528750156675
174.091187 0.11959951298515231
184.074478 0.0007272686041680711
202.085632 0.0019486263176582566
225.76976 0.00046229190547948396
248.99736 0.008901614891246785
267.008331 0.015466505034988632
270.066864 0.0024326093389373644
297.055206 0.0020114812554867124
310.073669 0.0007234480099079101
311.293915 0.004870148476920098
312.077789 0.27810857414066514
314.093719 0.014106496723347442
340.072327 0.01750288177565446
351.614136 0.0004995118882720204
368.35141 0.006410464188645662
435.052155 0.005532959958569969
450.075897 0.03283209190722956
468.086823 0.8655781834701126
468.438934 0.03438559483140149
470.719696 0.0006480220845137634
928.997864 0.000588494761040932
END IONS

BEGIN IONS
CHARGE=1+
PRECURSORTYPE=M+H
FORMULA=C23H34O5
ONTOLOGY=
INCHIKEY=SHIBSTMRCDJXLN-UHFFFAOYSA-N
INCHI=InChI=1S/C23H34O5/c1-21-7-5-15(24)10-14(21)3-4-17-18(21)11-19(25)22(2)16(6-8-23(17,22)27)13-9-20(26)28-12-13/h9,14-19,24-25,27H,3-8,10-12H2,1-2H3/t14-,15+,16-,17-,18+,19-,21+,22+,23+/m1/s1
SMILES=CC12CCC(O)CC1CCC1C2CC(O)C2(C)C(C3=CC(=O)OC3)CCC12O
IONMODE=positive
INSTRUMENTTYPE=LC-ESI-Orbitrap
INSTRUMENT=Orbitrap
COMMENT=DB#=CCMSLIB00010109986; origin=GNPS
NUM_PEAKS=191
COMPOUND_NAME=Digoxigenin
PRECURSOR_MZ=391.248
COLLISION_ENERGY=102040
PARENT_MASS=390.2407235480092
53.375641 0.0008343549384884171
55.054531 0.0010131452824502208
60.87896 0.0007310236370352074
65.738663 0.0007774774019429003
66.165337 0.0008635868198205752
66.737389 0.0010775007421272198
67.054428 0.007717896482883487
69.070084 0.004163843561848089
74.077011 0.0007595757071735943
79.054443 0.00850670407138924
81.070053 0.025685532937985357
83.049149 0.0008762766287709694
83.085518 0.001941767373141566
85.065033 0.00081577343252534
91.054176 0.013445532394136402
93.069908 0.02033383261688787
95.048668 0.0010117856600626786
95.085426 0.020686201418992564
97.064507 0.0016650842172767216
105.069763 0.038151684005628836
107.085342 0.03626294190560142
109.064636 0.007784971187335571
109.101028 0.01545460107546131
111.044006 0.0014563821807889888
111.080254 0.0015069148128593085
117.070053 0.007588732356066975
119.048767 0.0009648786876924715
119.085411 0.0261215185169239
121.064537 0.0037260451530594903
121.100929 0.015770033469371107
123.080002 0.0014541161434764186
123.116272 0.0016523944083263276
125.059547 0.03059059730477522
128.105423 0.0007505115579233127
129.069672 0.00466735705270123
131.085281 0.017851841948429523
133.064438 0.0010473624458700336
133.100967 0.026790679335325935
135.079865 0.003665768560545118
135.116714 0.01369887536568177
137.059479 0.0018268792813942475
137.096252 0.0010006820772310836
139.07518 0.0014955846262964566
141.05426 0.0007656940079175344
141.070175 0.0015234568852410724
143.085358 0.018267886399017445
145.100998 0.031262930575414856
147.080109 0.003982333973111201
147.116669 0.07382545620996195
149.022934 0.004544084622897401
149.059265 0.003910273986571463
149.09549 0.002009975096249935
149.132019 0.00839340220576072
151.074142 0.0036882023299395646
153.054413 0.0857690590733267
155.070175 0.07988619960616271
155.084946 0.008077063396925894
157.100769 0.016324079592294566
157.956573 0.0009612530279923589
159.079987 0.00159710309789961
159.116623 0.029311645845560494
161.096024 0.004635405926593988
161.132233 0.14893507576495754
163.07515 0.027013204199420347
163.147995 0.003662142900845005
165.090302 0.001317700697259681
165.127014 0.001521870659122273
167.070587 0.007014291897330382
167.084518 0.0015579006523921423
168.094254 0.0008615473862392618
169.101028 0.008789505527998023
171.079819 0.004593257632580178
171.116516 0.01146977446130628
173.095703 0.00434286050954115
173.132217 0.013438507678467434
175.07547 0.013136898112164315
175.110504 0.0016088864919249761
175.147827 0.0036344972456316465
177.090546 0.012541836713883332
177.126968 0.0010423771637823789
179.14328 0.001713124208303214
181.084641 0.0011357379010602789
181.100632 0.006664415736269513
182.107162 0.0010738750824271072
183.079239 0.0008325421086383608
183.116562 0.01617859999682755
185.095154 0.0033886321972177594
185.132263 0.017788166299946295
187.075455 0.011145051314414943
187.111755 0.0018898751186837042
187.147614 0.016838243458516786
189.090607 0.05027430381668665
189.163284 0.025876333279703782
191.106339 0.00793498285742773
193.085098 0.0014785893464521788
195.100357 0.000832995316100875
195.117142 0.009616835750817473
197.095505 0.0009109469996532963
197.132217 0.016504909369837683
199.07431 0.0013711791778363422
199.111374 0.0016528476157888416
199.147629 0.022706600286880325
201.090759 0.006136202438709356
201.126938 0.00396329925968561
201.163147 0.03931008227981482
203.106842 0.009884454757432036
203.143112 0.001713804019496985
205.121994 0.0012032658129748765
207.099701 0.008828254766042978
209.095581 0.001112624320472061
209.133026 0.009930455314877214
210.385666 0.0014955846262964566
211.111069 0.004466359543076236
211.147644 0.011679382912719041
213.090363 0.0035023872703087927
213.126648 0.0038959979515022693
213.163284 0.015531646344088702
215.107239 0.007384109186741869
215.1427 0.003857248713457316
215.17894 0.014053736808830293
217.12178 0.004855438149644572
217.157822 0.0060899752775329195
221.133606 0.0019089098321092956
223.110397 0.0013698195554488
223.147614 0.006460245774406921
225.126953 0.004370959372217023
225.164139 0.006356687869222454
227.1064 0.01228101581920648
227.143143 0.005052583395838196
227.180557 0.00353705764119112
229.122055 0.023773450653638464
229.159302 0.0032957246674023733
231.137314 0.0033761689919986223
231.174042 0.001994339438793199
235.148529 0.0074174199352366535
237.126984 0.0014731508569020097
237.163391 0.005656935547100719
239.179214 0.0045017097251523345
241.121872 0.015965365885714674
243.137543 0.0195540891776324
243.169464 0.0013147548487533395
245.152786 0.0010935896070464696
247.132355 0.005241797511437823
249.164276 0.007346039759890686
251.17836 0.009409946544179796
252.185745 0.0010426037675136358
253.120789 0.001113077527934575
253.194824 0.008174049793903907
255.136688 0.012969664558496621
257.153137 0.003394297290499185
259.132355 0.0037088232694839555
261.14682 0.0011785660062678593
263.142181 0.003614556117281027
263.179291 0.005725143270209087
265.195343 0.0030328643391442085
267.139801 0.0013303905062100752
267.173401 0.004667583656432487
267.20636 0.002273288631970614
269.15271 0.0016970353433839642
275.178711 0.0034069870994495794
277.194855 0.016064618320005258
279.174469 0.001876732102270796
281.153046 0.008706341958626691
281.189453 0.002955819070516815
281.225739 0.0015014763233091395
283.168976 0.00358985631057401
285.181854 0.0059431360596783585
291.175018 0.0029698685018547514
291.209839 0.03400823477959388
293.192688 0.000973036422017725
293.226013 0.007027208310012033
295.168304 0.006003865859655245
295.205658 0.008714726296683201
297.186676 0.001142989220460504
301.194946 0.004818048533987161
309.184174 0.005885352108207814
309.220001 0.052957291994769985
311.200256 0.00132313918680985
311.235748 0.0055465795299785405
313.216766 0.003588270084455211
319.204803 0.043038166866455625
322.194733 0.0012975329651778045
325.214508 0.001667350254589292
327.230347 0.013397945610572424
329.248413 0.0010865648913775015
331.047943 0.0032676258047265004
337.215332 0.48680758397367774
355.225891 1.0
373.23642 0.4795984128674663
391.246857 0.3615394551086678
414.263306 0.0009651052914237285
END IONS

BEGIN IONS
CHARGE=1+
PRECURSORTYPE=M+H
FORMULA=C11H14O5
ONTOLOGY=
INCHIKEY=WKGYQHYYELHOBX-UHFFFAOYSA-N
INCHI=InChI=1S/C11H14O5/c1-14-6-9(13)11-8(12)4-7(15-2)5-10(11)16-3/h4-5,12H,6H2,1-3H3
SMILES=COCC(=O)c1c(O)cc(OC)cc1OC
IONMODE=positive
INSTRUMENTTYPE=LC-ESI-Orbitrap
INSTRUMENT=Orbitrap
COMMENT=DB#=CCMSLIB00010105364; origin=GNPS
NUM_PEAKS=52
COMPOUND_NAME="1-(2-hydroxy-4,6-dimethoxyphenyl)-2-methoxyethan-1-one "
PRECURSOR_MZ=227.091
COLLISION_ENERGY=102040
PARENT_MASS=226.08372354800926
57.26226 0.0004401721996699275
67.624901 0.00045971652513789724
77.589706 0.0004175121121708321
79.054451 0.00204224038585597
81.070107 0.0017162183769627354
82.07354 0.00045560938427868623
83.085747 0.0004979554227926207
90.976837 0.0038489574872682176
91.054497 0.0006006339442728966
94.041428 0.000561120416696349
95.049118 0.0006169208821628714
103.558884 0.00048181011044951525
105.033737 0.0007290883152833934
107.049057 0.0007990513354368503
109.064789 0.021085777920095715
109.101341 0.0005369024481816909
113.468323 0.00040009216990590256
121.064667 0.0018222959115678755
124.051788 0.0024181145872472143
125.059547 0.0006915575453630168
135.044006 0.0006190452653659116
137.059723 0.09326835364408906
139.075424 0.009087969717059066
139.086594 0.0008494700301223375
142.671783 0.00042898378146724917
151.075134 0.006177564728894005
152.047073 0.002088551939682246
153.05481 0.0018877269142215133
155.070267 0.02949153737788514
158.964203 0.00045886677185668116
163.038803 0.01903858064009932
164.046448 0.0018448143735201015
164.151978 0.0006939651796597956
165.038971 0.0008486202768411214
165.054733 0.02075748990245257
166.062531 0.0005550305181809672
167.070267 1.0
169.085114 0.003244641278776718
179.070145 0.002815799122856338
180.041779 0.001923558177579458
181.085815 0.025653626683272736
181.177917 0.0018497712676605286
184.097946 0.0004819517359963846
194.057526 0.001969019978124518
195.06517 0.4956253992955262
199.096481 0.034463018949639795
206.720245 0.0004486697324820883
209.080658 0.03228156065121126
213.541458 0.00042742590045168635
227.091156 0.07535272196511678
227.183365 0.006213820868892558
236.09053 0.0008377151097321818
END IONS

BEGIN IONS
CHARGE=1+
PRECURSORTYPE=M+H
FORMULA=C17H14FNO6
ONTOLOGY=
INCHIKEY=ZYJFTUZFDDQOJY-UHFFFAOYSA-N
INCHI=InChI=1S/C17H14FNO6/c1-23-17(22)13-12(9-4-2-3-5-10(9)18)15-14(25-16(13)19)11(21)6-8(7-20)24-15/h2-6,12,20H,7,19H2,1H3
SMILES=COC(=O)C1=C(N)Oc2c(oc(CO)cc2=O)C1c1ccccc1F
IONMODE=positive
INSTRUMENTTYPE=LC-ESI-Orbitrap
INSTRUMENT=Orbitrap
COMMENT=DB#=CCMSLIB00010110030; origin=GNPS
NUM_PEAKS=42
COMPOUND_NAME="methyl 2-amino-4-(2-fluorophenyl)-6-(hydroxymethyl)-8-oxo-4H-pyrano[3,2-b]pyra n-3-carboxylate "
PRECURSOR_MZ=348.088
COLLISION_ENERGY=102040
PARENT_MASS=347.08072354800925
50.545139 0.0011382418577466776
52.70488 0.0013039502327234856
60.490269 0.0012798729474704452
67.018097 0.0066991505439342
73.955452 0.001513092141882249
77.339127 0.0014436929079176028
83.013168 0.001578242443155182
84.080307 0.0012784566365732074
84.264328 0.0014356671461665893
92.380798 0.0013615468758778177
101.023087 0.0021084148223544847
109.044632 0.023563636500975604
123.024307 0.012242119292090046
137.040421 0.0022056681706314717
147.059708 0.0021834792999080813
149.039185 0.0032244678093777722
161.040695 0.0016490579880170655
165.03421 0.005860694492769497
175.055313 0.017628821737917334
200.075867 0.0015225342145305
203.050049 0.03558481129309657
214.758057 0.0014649375713761679
221.060623 0.0057473896209904824
221.411987 0.001466825985905818
229.049133 0.14575113812383184
231.044891 0.00655893576510767
242.060883 0.005497646799444239
245.06076 0.020421786827270028
249.055298 0.5025807545065832
250.063171 0.08398629199892926
252.04982 0.0025583295840436527
270.054596 0.010645936910903186
273.055298 0.011647268715250222
288.066254 0.007302026882525037
298.05014 0.01695985089078874
303.025543 0.0019238223020811745
303.065704 0.08803174802507248
316.060913 0.6797178142168344
330.075775 0.006504171743747814
331.062256 0.0026442524451427384
334.071259 0.008696621012671733
348.087067 1.0
END IONS

BEGIN IONS
CHARGE=1+
PRECURSORTYPE=M+H
FORMULA=C18H25N3O4S
ONTOLOGY=
INCHIKEY=DQCDVLOLHGLVKW-UHFFFAOYSA-N
INCHI=InChI=1S/C18H25N3O4S/c1-18(2,3)16-20-21-17(26-16)19-14(22)8-7-11-9-12(23-4)15(25-6)13(10-11)24-5/h9-10H,7-8H2,1-6H3,(H,19,21,22)
SMILES=COc1cc(CCC(O)=Nc2nnc(C(C)(C)C)s2)cc(OC)c1OC
IONMODE=positive
INSTRUMENTTYPE=LC-ESI-Orbitrap
INSTRUMENT=Orbitrap
COMMENT=DB#=CCMSLIB00010105133; origin=GNPS
NUM_PEAKS=31
COMPOUND_NAME="N-[5-(tert-butyl)(1,3,4-thiadiazol-2-yl)]-3-(3,4,5-trimethoxyphenyl)propanamid e "
PRECURSOR_MZ=380.164
COLLISION_ENERGY=102040
PARENT_MASS=379.1567235480092
57.070492 0.0008662289482308338
64.497688 0.0005109219879155258
66.733582 0.0005756914858896704
69.600166 0.0005191653785667805
75.001404 0.011428535859422263
78.130997 0.0005112584528400668
79.230324 0.0005385121117278887
80.860443 0.000547260199765955
82.388046 0.000635750474920241
102.012016 0.0053854575822034284
104.273903 0.000827367249446347
116.05265 0.006408647417732644
136.182205 0.0004707144294328749
141.047745 0.0038875157381468455
143.051025 0.0005403626688128643
157.563614 0.0006233012727122236
158.074631 0.9052856284390921
162.102448 0.0009959361766413936
181.085846 0.3078746587404503
184.055008 0.000740895763839307
190.061981 0.0008095346084456734
190.362244 0.0006434891681846843
191.07019 0.006043582974605647
195.10144 0.007709589048470464
208.073044 0.0022358094235750206
208.735657 0.0008791828478256627
208.753784 0.0008773322907406871
213.941193 0.000578551437748269
223.096283 0.07223733697433243
348.136902 0.00890589008767603
380.163361 1.0
END IONS

BEGIN IONS
CHARGE=1+
PRECURSORTYPE=M+H
FORMULA=C10H9NO3
ONTOLOGY=
INCHIKEY=ILGMGHZPXRDCCS-UHFFFAOYSA-N
INCHI=InChI=1S/C10H9NO3/c12-9(13)5-7-6-3-1-2-4-8(6)11-10(7)14/h1-4,7H,5H2,(H,11,14)(H,12,13)
SMILES=C1=CC=C2C(=C1)C(C(=O)N2)CC(=O)O
IONMODE=positive
INSTRUMENTTYPE=LC-ESI-Orbitrap
INSTRUMENT=Orbitrap
COMMENT=DB#=CCMSLIB00010102105; origin=GNPS
NUM_PEAKS=12
COMPOUND_NAME="(2-Oxo-2,3-dihydro-1H-indol-3-yl)acetic acid "
PRECURSOR_MZ=192.066
COLLISION_ENERGY=102040
PARENT_MASS=191.05872354800925
52.42289 0.0018067587058128273
60.524197 0.002030594127247699
61.730194 0.0018126657655264777
69.238754 0.0020520646827385117
69.684525 0.001795290479286297
75.334328 0.0020388243817774073
82.43869 0.002035733432675659
118.066002 0.002754493290843686
128.04982 0.003677949585643121
146.060318 1.0
189.430756 0.004904521065088547
192.065842 0.1164079511917234
END IONS

BEGIN IONS
CHARGE=1+
PRECURSORTYPE=M+H
FORMULA=C10H9NO3
ONTOLOGY=
INCHIKEY=ILGMGHZPXRDCCS-UHFFFAOYSA-N
INCHI=InChI=1S/C10H9NO3/c12-9(13)5-7-6-3-1-2-4-8(6)11-10(7)14/h1-4,7H,5H2,(H,11,14)(H,12,13)
SMILES=C1=CC=C2C(=C1)C(C(=O)N2)CC(=O)O
IONMODE=positive
INSTRUMENTTYPE=LC-ESI-Orbitrap
INSTRUMENT=Orbitrap
COMMENT=DB#=CCMSLIB00010102110; origin=GNPS
NUM_PEAKS=18
COMPOUND_NAME=2-oxindole-3-acetic acid
PRECURSOR_MZ=192.066
COLLISION_ENERGY=102040
PARENT_MASS=191.05872354800925
51.180584 0.0008682096918988691
63.050327 0.0007539268697780801
92.428871 0.0008683674412261256
118.065254 0.0019482648689566544
128.049454 0.0019132854925039196
132.044113 0.009310063314424988
136.755035 0.0008477616464276157
146.060028 1.0
165.881363 0.0008286588930743563
174.054947 0.08847839248161485
180.424164 0.0014265712681996864
189.430267 0.005334742386840715
191.932526 0.0011390967074093243
192.065475 0.015452300663337479
192.138275 0.0020900160600924498
306.812744 0.0022294080744342335
324.826355 0.0011495561451946624
366.618439 0.0009173720654114521
END IONS

BEGIN IONS
CHARGE=1+
PRECURSORTYPE=M+H
FORMULA=C16H15NO4
ONTOLOGY=
INCHIKEY=HONCWUVXYYRGOG-UHFFFAOYSA-N
INCHI=InChI=1S/C16H15NO4/c1-2-19-13-6-4-12(5-7-13)17-16(18)11-3-8-14-15(9-11)21-10-20-14/h3-9H,2,10H2,1H3,(H,17,18)
SMILES=CCOc1ccc(NC(=O)c2ccc3c(c2)OCO3)cc1
IONMODE=positive
INSTRUMENTTYPE=LC-ESI-Orbitrap
INSTRUMENT=Orbitrap
COMMENT=DB#=CCMSLIB00010105878; origin=GNPS
NUM_PEAKS=40
COMPOUND_NAME="2H-benzo[3,4-d]1,3-dioxolen-5-yl-N-(4-ethoxyphenyl)carboxamide "
PRECURSOR_MZ=286.107
COLLISION_ENERGY=102040
PARENT_MASS=285.09972354800925
50.271671 0.000241803566355915
55.01852 0.00021713469311727257
55.895809 0.0001495444108742532
56.935261 0.00024450134461156953
62.491581 0.00016266873752338317
63.023621 0.00019832315825351961
65.03891 0.0021492543146466904
68.997513 0.0007872408601703129
73.169403 0.00017902553721757663
81.033798 0.0007700577139833965
82.407013 0.00017540419523476115
92.394341 0.00020216323901382059
93.033569 0.007805498840101176
95.013268 0.0004239643593841172
95.049217 0.020966379169379837
98.348717 0.00017739714854074016
108.044327 0.038800151697772615
111.035538 0.00042219014485562367
111.043991 0.008531225495180844
121.029259 0.0003126506259526074
123.043983 0.051574010216753605
135.043472 0.0004136350282250797
136.039749 0.003242948202074188
136.075684 0.15635693288180466
149.023254 0.41030193534237286
150.02655 0.000753943957375298
150.972794 0.00016998433441484266
164.07045 0.02665929889652606
176.071304 0.0003519993015913878
194.36705 0.0002052255818986176
209.061783 0.0007406495005659016
244.114792 0.00023976200443271702
245.118378 0.0009433717386777406
254.079987 0.00027313182015356043
257.068085 0.0011750161040348847
258.075531 0.000264455181979969
268.096863 0.0011468231060478647
284.856628 0.0003896466756275032
286.106995 1.0
287.366547 0.0003792444315426372
END IONS

BEGIN IONS
CHARGE=1+
PRECURSORTYPE=M+H
FORMULA=C21H17NO
ONTOLOGY=
INCHIKEY=AGDOMUAOXGDHJL-UHFFFAOYSA-N
INCHI=InChI=1S/C21H17NO/c1-14-5-10-18-19(12-14)20(17-4-3-11-22-21(17)18)13-15-6-8-16(23-2)9-7-15/h3-13H,1-2H3/b20-13+
SMILES=COc1ccc(C=C2c3cc(C)ccc3-c3ncccc32)cc1
IONMODE=positive
INSTRUMENTTYPE=LC-ESI-Orbitrap
INSTRUMENT=Orbitrap
COMMENT=DB#=CCMSLIB00010103980; origin=GNPS
NUM_PEAKS=14
COMPOUND_NAME="4-methoxy-1-[(7-methylindeno[3,2-b]pyridin-5-ylidene)methyl]benzene "
PRECURSOR_MZ=300.138
COLLISION_ENERGY=102040
PARENT_MASS=299.1307235480092
62.79969 0.0001750576362344156
242.096329 0.0019502036745737748
254.096985 0.0003085253789333897
256.111298 0.006807892101538678
257.119385 0.002183321484384615
268.110107 0.002560300159506935
270.093079 0.0002628979695806319
284.103027 0.0012857225477047808
285.114319 0.0748305524223814
298.121552 0.0006989775227874608
298.782898 0.0002925180209645642
299.129913 0.0004262502905619142
300.137726 1.0
301.501434 0.0002047020519379352
END IONS

BEGIN IONS
CHARGE=1+
PRECURSORTYPE=M+H
FORMULA=C16H15N5O3S
ONTOLOGY=
INCHIKEY=GMUVRLXQBFCUME-UHFFFAOYSA-N
INCHI=InChI=1S/C16H15N5O3S/c1-9(22)10-3-5-11(6-4-10)19-12(23)7-25-16-20-13-14(21(16)2)17-8-18-15(13)24/h3-6,8H,7H2,1-2H3,(H,19,23)(H,17,18,24)
SMILES=CC(=O)c1ccc(NC(=O)CSc2nc3c(O)ncnc3n2C)cc1
IONMODE=positive
INSTRUMENTTYPE=LC-ESI-Orbitrap
INSTRUMENT=Orbitrap
COMMENT=DB#=CCMSLIB00010112622; origin=GNPS
NUM_PEAKS=29
COMPOUND_NAME=N-(4-acetylphenyl)-2-(9-methyl-6-oxohydropurin-8-ylthio)acetamide
PRECURSOR_MZ=358.097
COLLISION_ENERGY=102040
PARENT_MASS=357.0897235480092
52.552269 0.0003830753623500475
55.32132 0.0003382732574151825
57.889809 0.0003292433758004035
59.19891 0.00037462431930031844
118.653374 0.0005426032708778099
134.05957 0.002775878222553472
136.074249 0.0005380883300704204
137.046234 0.000468975005403458
148.075882 0.002143323438666902
149.045135 0.0009283412906270871
150.054153 0.0008266972386043183
150.9953 0.00040541853096097506
151.060852 0.0031898635642771864
157.797989 0.0004619131749098488
163.061523 0.0008467250529550462
168.020798 0.0005688825417310769
181.017624 0.04684390008922218
182.025467 0.0005524435264836588
195.033356 0.23878167448040846
213.043549 0.0027996106037205194
222.043762 0.0005487389596673392
222.170532 0.0015754828063529152
223.028152 1.0
223.891037 0.0013332967507360223
236.059723 0.0018506626601776548
298.074066 0.0006349859058597796
316.986694 0.0008712678081131634
340.086853 0.004344299198412779
358.09613 0.10107817944157592
END IONS

BEGIN IONS
CHARGE=1+
PRECURSORTYPE=M+H
FORMULA=C11H15NO4
ONTOLOGY=
INCHIKEY=DWOJIEHUWQDXGP-UHFFFAOYSA-N
INCHI=InChI=1S/C11H15NO4/c1-15-9-6-8(12)5-7(11(9)16-2)3-4-10(13)14/h5-6H,3-4,12H2,1-2H3,(H,13,14)
SMILES=COc1cc(N)cc(CCC(=O)O)c1OC
IONMODE=positive
INSTRUMENTTYPE=LC-ESI-Orbitrap
INSTRUMENT=Orbitrap
COMMENT=DB#=CCMSLIB00010105807; origin=GNPS
NUM_PEAKS=37
COMPOUND_NAME="3-(3-amino-5,6-dimethoxyphenyl)propanoic acid "
PRECURSOR_MZ=226.107
COLLISION_ENERGY=102040
PARENT_MASS=225.09972354800925
55.981831 0.000493941363649006
80.529739 0.0004911943835244373
92.812263 0.0005049292841472807
104.287758 0.0007095793034276475
106.065071 0.003579486788570777
108.080589 0.0011909875702583088
116.520943 0.0004934263048756494
121.052757 0.0005633026117943652
123.067749 0.004321686480977678
124.075752 0.000758166514380956
136.075745 0.006521330815726049
136.210449 0.0006505192307494208
138.091431 0.017708750745547574
148.075012 0.0010965601284762603
150.055801 0.0006259680958860882
150.091629 0.0007590249456698837
151.062897 0.31348554350203567
153.078964 0.0012083278822946487
162.054794 0.007524836992482546
164.070831 0.0025030139522554252
165.078568 0.12627146550359528
166.086411 0.3915356614676634
166.6427 0.0006115464502321026
176.071213 0.004911085403955445
177.078537 0.29977605244534455
178.086441 0.003713573755901286
180.102036 0.03570250067901915
180.120132 0.0012958878737652753
193.073425 0.035068978387790495
195.089691 0.0008057236077875514
207.321045 0.0008810938749554045
208.096939 1.0
208.875946 0.0012086712548102197
211.083298 0.005936567421708491
220.906784 0.0029581542216448988
226.107513 0.03554849810578552
226.140884 0.0020550845056929445
END IONS

BEGIN IONS
CHARGE=1+
PRECURSORTYPE=M+H
FORMULA=C29H36N2O4
ONTOLOGY=
INCHIKEY=JVVADJZDSMGGOB-UHFFFAOYSA-N
INCHI=InChI=1S/C29H36N2O4/c1-3-30(4-2)23-12-10-22(11-13-23)28-24-7-5-6-16-29(24,33)17-18-31(28)27(32)15-9-21-8-14-25-26(19-21)35-20-34-25/h8-15,19,24,28,33H,3-7,16-18,20H2,1-2H3/b15-9+
SMILES=CCN(CC)c1ccc(C2C3CCCCC3(O)CCN2C(=O)C=Cc2ccc3c(c2)OCO3)cc1
IONMODE=positive
INSTRUMENTTYPE=LC-ESI-Orbitrap
INSTRUMENT=Orbitrap
COMMENT=DB#=CCMSLIB00010107522; origin=GNPS
NUM_PEAKS=111
COMPOUND_NAME="(2E)-3-(2H-benzo[3,4-d]1,3-dioxolan-5-yl)-1-{2-[4-(diethylamino)phenyl]-6-hydr oxy-3-azabicyclo[4.4.0]dec-3-yl}prop-2-en-1-one "
PRECURSOR_MZ=477.275
COLLISION_ENERGY=102040
PARENT_MASS=476.2677235480092
66.741524 0.0002923890219226329
67.976936 0.00025202205549192206
82.394417 0.0002101946886059257
109.101143 0.0008538755508143717
117.033409 0.00028755846657053485
118.040771 0.0004390750138064012
119.085548 0.0003130312206656101
125.095886 0.0006041470729605583
134.09642 0.0030941485723050255
135.043762 0.0010434093175945602
136.112137 0.0031238152969383566
142.395752 0.00024696682314670314
145.028397 0.008369985640144446
146.035919 0.0038673182748821156
147.044098 0.00040502708780721394
147.091064 0.0011663825251626999
147.103073 0.00030526114132018107
148.051865 0.005100223913091344
148.075317 0.004326857618145274
148.098114 0.0002669724370758379
150.091705 0.00033629465099499706
154.122391 0.019022436768779363
160.098801 0.0003390843903262475
160.112167 0.0006141451991544356
161.083405 0.002239477290473351
161.106461 0.0011365472927845283
162.114944 0.0006952442321296788
162.127487 0.0029740399963991766
163.038147 0.0031371835780290465
173.106079 0.0009690225097888021
174.114716 0.001508340908692618
175.038818 0.13303180931933206
175.122772 0.004936565446685573
176.046646 0.014331621144861091
187.121155 0.00034921357809944534
188.092453 0.00032615610168041916
188.129196 0.0003574704575966362
201.101395 0.00022979775625571897
201.137558 0.0003674779453318936
203.070297 0.00045036503271072344
204.125336 0.0003597733967761248
211.135391 0.0003244429396078727
215.118652 0.00037917987205693735
217.132401 0.0018896832968083434
227.152771 0.0003239280548319708
229.133347 0.0005392154219486355
238.157028 0.00030844406538939296
239.167267 0.0003307245338738762
240.125534 0.0005646320067954306
240.173706 0.00040887468131440836
243.148926 0.0003064781416995856
252.100021 0.0003739374088841178
253.132996 0.0014368374556319107
253.165878 0.0008103350218558289
254.177216 0.004331894127407732
255.185287 0.010812233916909355
256.133545 0.0021763524169477752
256.192139 0.004344082854284538
257.175049 0.00048321468141326624
257.200806 0.002108921234387383
266.120178 0.00037908625664313697
267.124786 0.030267192620529095
268.130951 0.00042962921855394594
268.205811 0.0005132558677017985
271.179901 0.024183014539147795
272.187897 0.01775043733376711
273.195587 0.0883290730830821
280.134094 0.0005129094906707372
281.163635 0.0014271482603035745
282.172943 0.005274517090504836
285.197937 0.00032406847795267137
285.233124 0.0009813984674932083
286.213867 0.00039604000808238037
287.151337 0.0004306215419402296
288.159546 0.00043185726540239424
295.180786 0.0005919583460837527
296.162811 0.0035294134387697526
298.142548 0.0005531173108979875
299.175934 0.0025960022323906038
300.183624 0.003983747765025611
301.22879 0.0003424639067644401
306.111938 0.0016959555594898994
307.14502 0.0004092491429696097
309.135864 0.00261910651651653
310.143646 0.0005876707601316966
311.209625 0.0009507581425563539
312.181274 0.0005107844207774693
313.191223 0.003700795176814053
321.123993 0.0010608873153510855
322.130157 0.001504034599657802
323.13858 0.005787707427416974
323.175293 0.000730097250687549
327.146423 0.00176839516668861
328.152771 0.0020093237956451907
333.12204 0.0012464985962930392
334.129486 0.005642940551516113
335.138336 0.019731283320534233
336.146149 0.0005955625395150662
349.153717 0.02590522922220869
402.230957 0.0005927728001838158
405.180389 0.0004931847229830035
429.215393 0.0021363411890895053
430.222809 0.002690010830928915
431.231445 0.029456698452469808
433.210236 0.00040200330994146264
447.228302 0.002781304582467016
448.234924 0.003941611467274074
459.25705 0.0009317729366376429
474.578186 0.0010777287282937684
477.274078 1.0
479.992096 0.0009420799936970614
END IONS

BEGIN IONS
CHARGE=1+
PRECURSORTYPE=M+H
FORMULA=C17H14O8
ONTOLOGY=
INCHIKEY=IBXCKSUZOFKGSB-UHFFFAOYSA-N
INCHI=InChI=1S/C17H14O8/c1-23-11-5-7(3-4-8(11)18)15-14(22)13(21)12-9(19)6-10(20)16(24-2)17(12)25-15/h3-6,18-20,22H,1-2H3
SMILES=COc1cc(-c2oc3c(OC)c(O)cc(O)c3c(=O)c2O)ccc1O
IONMODE=positive
INSTRUMENTTYPE=LC-ESI-Orbitrap
INSTRUMENT=Orbitrap
COMMENT=DB#=CCMSLIB00010111814; origin=GNPS
NUM_PEAKS=19
COMPOUND_NAME=Limocitrin
PRECURSOR_MZ=347.076
COLLISION_ENERGY=102040
PARENT_MASS=346.06872354800925
67.54744 0.0013252363255182907
101.000679 0.0013611730635903344
117.745651 0.0015165303466402468
183.90126 0.0014396810144554147
252.113586 0.0014159074800385242
258.807068 0.0013639374280574148
272.031525 0.002894842469926479
274.104523 0.0016547485699942611
275.18985 0.0014800407356747869
286.932434 0.005576828875887775
289.034149 0.00922966008268767
300.026764 0.01433875849074546
301.034485 0.02875215482210209
304.058075 0.001596144043292159
315.050049 0.007188453360195584
317.029266 0.012144405976777127
323.908173 0.005846077974981396
332.052307 0.2622873236197252
347.075836 1.0
END IONS

BEGIN IONS
CHARGE=1+
PRECURSORTYPE=M+H
FORMULA=C9H11NO4
ONTOLOGY=
INCHIKEY=WTDRDQBEARUVNC-LURJTMIESA-N
INCHI=InChI=1S/C9H11NO4/c10-6(9(13)14)3-5-1-2-7(11)8(12)4-5/h1-2,4,6,11-12H,3,10H2,(H,13,14)/t6-/m0/s1
SMILES=N[C@@H](Cc1ccc(O)c(O)c1)C(=O)O
IONMODE=positive
INSTRUMENTTYPE=LC-ESI-Orbitrap
INSTRUMENT=Orbitrap
COMMENT=DB#=CCMSLIB00010102986; origin=GNPS
NUM_PEAKS=16
COMPOUND_NAME=levodopa
PRECURSOR_MZ=198.076
COLLISION_ENERGY=102040
PARENT_MASS=197.06872354800925
63.353401 0.007743308551998406
82.397102 0.010616459677863845
104.282997 0.01053747260909935
107.049004 0.015035295998100592
108.450996 0.008234865362519767
111.043999 0.020410704023098154
122.763 0.008998740671491501
126.331001 0.008586509923133345
135.044006 0.23162471103564358
139.028 0.017542896575554454
139.039001 0.3425479979394818
152.070999 1.0
157.973999 0.011172290198123488
163.039001 0.07514319753416178
181.048996 0.34361303622017864
198.076004 0.08764452079809042
END IONS

BEGIN IONS
CHARGE=1+
PRECURSORTYPE=M+H
FORMULA=C17H14N2O3S
ONTOLOGY=
INCHIKEY=JOIUJUJSHIHBDT-UHFFFAOYSA-N
INCHI=InChI=1S/C17H14N2O3S/c1-22-14-9-11(7-8-13(14)20)10-15-16(21)19-17(23-15)18-12-5-3-2-4-6-12/h2-10,20H,1H3,(H,18,19,21)/b15-10-
SMILES=COc1cc(C=C2SC(=Nc3ccccc3)N=C2O)ccc1O
IONMODE=positive
INSTRUMENTTYPE=LC-ESI-Orbitrap
INSTRUMENT=Orbitrap
COMMENT=DB#=CCMSLIB00010104972; origin=GNPS
NUM_PEAKS=50
COMPOUND_NAME="5-[(4-hydroxy-3-methoxyphenyl)methylene]-2-(phenylamino)-1,3-thiazolin-4-one "
PRECURSOR_MZ=327.08
COLLISION_ENERGY=102040
PARENT_MASS=326.0727235480092
63.53363 0.00029817665382421714
69.780144 0.00029474622305058096
84.15181 0.0002779551671585724
92.049583 0.0013532146657054239
98.984154 0.003469339080568722
119.060181 0.022846127305452598
120.043991 0.0013982616382329093
121.01049 0.002632584795283627
121.064651 0.00043512306128753455
135.044205 0.0003748196992667725
137.059357 0.004348071005583838
138.014084 0.0003018779080799825
138.027054 0.0006386017708605849
138.089203 0.0004471295689952611
145.039307 0.0027127485459938617
148.051163 0.0031499479206443864
149.005356 0.028037271810904544
149.05928 0.0006342685951465182
153.036209 0.0016967091155392557
162.054184 0.0005082454014624107
166.008011 0.044506228308167514
167.0159 0.0004362966297100943
174.00058 0.0007680553953183287
174.991699 0.0018056704298492253
175.039215 0.0031592461935308212
177.000183 0.10369289483761694
180.026138 0.0003944995389681589
181.031418 0.09249019122484975
192.01123 0.00200779502201163
192.064835 0.0012121156315161258
193.019028 0.0016967091155392557
194.003159 0.0052348373605687875
201.995255 0.002676548473882596
205.042816 0.00040199232197373266
206.027084 0.0027648369290567054
207.010468 0.0027935442181623977
208.041168 0.0024875136833564346
209.026199 0.013960138033312372
209.048553 0.0004508308232510265
209.686783 0.0005823607610717605
234.021805 0.001429316064183721
240.047562 0.001415142968618961
250.999924 0.00036046605471392646
267.060974 0.0004186028288776551
268.042267 0.0018722930064530015
284.062714 0.00048116305324949363
295.052429 0.000724181991213403
312.05545 0.03918021370861524
326.067505 0.0003897149907838769
327.078857 1.0
END IONS

BEGIN IONS
CHARGE=1+
PRECURSORTYPE=M+H
FORMULA=C15H15N5O2S
ONTOLOGY=
INCHIKEY=OTWOCXUXCQGJON-UHFFFAOYSA-N
INCHI=InChI=1S/C15H15N5O2S/c1-9-4-3-5-10(6-9)18-11(21)7-23-15-19-12-13(20(15)2)16-8-17-14(12)22/h3-6,8H,7H2,1-2H3,(H,18,21)(H,16,17,22)
SMILES=Cc1cccc(N=C(O)CSc2nc3c(O)ncnc3n2C)c1
IONMODE=positive
INSTRUMENTTYPE=LC-ESI-Orbitrap
INSTRUMENT=Orbitrap
COMMENT=DB#=CCMSLIB00010110731; origin=GNPS
NUM_PEAKS=22
COMPOUND_NAME=2-(9-methyl-6-oxohydropurin-8-ylthio)-N-(3-methylphenyl)acetamide
PRECURSOR_MZ=330.102
COLLISION_ENERGY=102040
PARENT_MASS=329.0947235480092
53.494221 0.0005029785845636489
66.750313 0.0005012168382079093
70.79924 0.0004911748839801938
82.40818 0.000747685153375876
94.252617 0.0005288762559930207
104.298317 0.0006384568793200223
120.080597 0.011004924785762834
120.389832 0.0005662252787346997
131.073257 0.0046617570319224914
136.226273 0.0006189014947713129
146.060242 0.0010915780420162411
148.075485 0.0024118307610074795
150.053833 0.0006076263180945798
151.061783 0.0031336182429539837
163.061142 0.0007064602886515699
181.017639 0.041908246135697456
195.033401 0.20006444468169296
213.044281 0.002367963276749564
223.028183 1.0
236.059341 0.0011900596633020834
312.091919 0.005161035949139087
330.101288 0.06437121686991934
END IONS

BEGIN IONS
CHARGE=1+
PRECURSORTYPE=M+H
FORMULA=C28H30ClNO6
ONTOLOGY=
INCHIKEY=FNOWZTMNFWPNII-UHFFFAOYSA-N
INCHI=InChI=1S/C28H30ClNO6/c1-6-36-28(32)24-15(2)30-20-11-17(16-7-9-19(29)10-8-16)12-21(31)26(20)25(24)18-13-22(33-3)27(35-5)23(14-18)34-4/h7-10,13-14,17,25,30H,6,11-12H2,1-5H3
SMILES=CCOC(=O)C1=C(C)NC2=C(C(=O)CC(c3ccc(Cl)cc3)C2)C1c1cc(OC)c(OC)c(OC)c1
IONMODE=positive
INSTRUMENTTYPE=LC-ESI-Orbitrap
INSTRUMENT=Orbitrap
COMMENT=DB#=CCMSLIB00010110919; origin=GNPS
NUM_PEAKS=26
COMPOUND_NAME="ethyl 7-(4-chlorophenyl)-2-methyl-5-oxo-4-(3,4,5-trimethoxyphenyl)-1,4,6,7,8-p entahydroquinoline-3-carboxylate "
PRECURSOR_MZ=512.183
COLLISION_ENERGY=102040
PARENT_MASS=511.1757235480092
63.942429 0.0010525411101899931
73.606689 0.001350073785791119
73.947723 0.0014483520659443407
93.545502 0.0011993804228895126
104.279243 0.0014140510191457652
112.075813 0.009916085764949957
150.055084 0.001561661141885702
178.049988 0.03997343788600721
178.066391 0.0016934696587970815
178.086792 0.002752177249310414
204.065765 0.005878582773243488
229.074097 0.001663408067220802
244.09697 0.005685880263139132
285.091644 0.0013211684092754655
298.062164 0.009807016144230891
311.619476 0.0011465799351209189
316.073364 0.3551071753550447
324.02243 0.02239819815444952
344.104706 1.0
350.963257 0.001234837684748714
378.033966 0.004459521488835009
436.092499 0.0022604004435240973
466.141602 0.02836580948736122
494.113892 0.0049632458502477965
512.125732 0.10278443564950189
515.182434 0.0012544933407793583
END IONS

BEGIN IONS
CHARGE=1+
PRECURSORTYPE=M+H
FORMULA=C20H20ClNO5S
ONTOLOGY=
INCHIKEY=SVHQWHSBTPUXGM-UHFFFAOYSA-N
INCHI=InChI=1S/C20H20ClNO5S/c1-24-16-11-13(19(28)22-7-9-26-10-8-22)12-17(25-2)18(16)27-20(23)14-5-3-4-6-15(14)21/h3-6,11-12H,7-10H2,1-2H3
SMILES=COc1cc(C(=S)N2CCOCC2)cc(OC)c1OC(=O)c1ccccc1Cl
IONMODE=positive
INSTRUMENTTYPE=LC-ESI-Orbitrap
INSTRUMENT=Orbitrap
COMMENT=DB#=CCMSLIB00010105523; origin=GNPS
NUM_PEAKS=17
COMPOUND_NAME="2,6-dimethoxy-4-(morpholin-4-ylthioxomethyl)phenyl 2-chlorobenzoate "
PRECURSOR_MZ=422.082
COLLISION_ENERGY=102040
PARENT_MASS=421.0747235480092
62.842079 0.0012228334563289028
66.736504 0.0009638031435366513
67.537247 0.0009210697162993509
86.006081 0.0175660683438989
87.000183 0.001191933901249624
88.16774 0.000977938046392066
104.273987 0.0010101524761555695
130.031982 0.0343981078953294
136.197845 0.001145584568630706
138.994507 0.6742887760653361
154.971542 0.021414377825953325
157.005096 0.003612946913578218
213.591873 0.0009924016679185368
252.068863 0.002261913175537414
288.045441 0.0011692523129467492
335.013245 0.05073345353479405
422.081726 1.0
END IONS

BEGIN IONS
CHARGE=1+
PRECURSORTYPE=M+H
FORMULA=C17H18N4O3
ONTOLOGY=
INCHIKEY=VQEDFYBLQJNFSJ-UHFFFAOYSA-N
INCHI=InChI=1S/C17H18N4O3/c1-3-4-11-15-14(9-5-6-13(23-2)12(22)7-9)10(8-18)16(19)24-17(15)21-20-11/h5-7,14,22H,3-4,19H2,1-2H3,(H,20,21)
SMILES=CCCc1[nH]nc2c1C(c1ccc(OC)c(O)c1)C(C#N)=C(N)O2
IONMODE=positive
INSTRUMENTTYPE=LC-ESI-Orbitrap
INSTRUMENT=Orbitrap
COMMENT=DB#=CCMSLIB00010110149; origin=GNPS
NUM_PEAKS=51
COMPOUND_NAME="6-amino-4-(3-hydroxy-4-methoxyphenyl)-3-propyl-4H-pyrano[2,3-c]pyrazole-5-carb onitrile "
PRECURSOR_MZ=327.145
COLLISION_ENERGY=102040
PARENT_MASS=326.1377235480092
51.462681 0.000901604405977656
62.82024 0.0009432169170227785
69.920502 0.0010050733523601228
73.452133 0.0009694590411052883
84.994331 0.0009735828034611112
85.075607 0.0012262569696269907
93.536163 0.001095421236701335
98.984093 0.0136653986722235
104.294212 0.0011512794722483915
109.075562 0.0012524990937095005
112.062866 0.0009795810032513991
124.052071 0.0025353640738573335
127.086197 0.0043063325619398475
137.059814 0.0029874783830502872
137.07077 0.011329849628880133
139.085968 0.0011494050348139265
140.638336 0.0012521242062226074
140.695465 0.0011554032346042145
144.044159 0.002110616551207569
150.054749 0.0016202637183515298
151.074493 0.0018635656973450842
152.081589 0.004339697548273324
161.04541 0.007034763691547074
174.991592 0.0054733573086377454
175.061859 0.0016187641684039578
176.069641 0.0021301107005260046
177.054001 0.0012614963933949323
178.097137 0.008981179523495511
192.065323 0.006427445962780421
201.065735 0.016099918012106616
203.092392 0.1533049893400743
214.085388 0.0024506395018195166
217.061111 0.0013593420274740043
219.075974 0.023101316717320214
229.097061 0.009169373041915795
231.11264 0.00588310933181179
244.096313 0.010590196617240252
245.128052 0.004677096286477021
246.098099 0.009176495904166762
247.106735 0.0023741624544933453
251.000427 0.002393281716324888
259.306732 0.0012506246562750355
261.122772 1.0
262.131042 0.02086136398313456
267.065491 0.001294486492241516
285.109863 0.002401154353549641
287.126129 0.004248225001471434
295.117676 0.0017241075522208898
300.13324 0.03186693593585225
310.118225 0.0025732277100335263
327.144287 0.8776843349889615
END IONS

BEGIN IONS
CHARGE=1+
PRECURSORTYPE=M+H
FORMULA=C21H26N2O2
ONTOLOGY=
INCHIKEY=IYLRRIUNGGQRTN-UHFFFAOYSA-N
INCHI=InChI=1S/C21H26N2O2/c1-25-17(24)15-13-19-7-4-11-23-12-10-20(18(19)23)14-5-2-3-6-16(14)22-21(15,20)9-8-19/h2-3,5-6,15,18,22H,4,7-13H2,1H3
SMILES=COC(=O)C1CC23CCCN4CCC5(c6ccccc6NC15CC2)C43
IONMODE=positive
INSTRUMENTTYPE=LC-ESI-Orbitrap
INSTRUMENT=Orbitrap
COMMENT=DB#=CCMSLIB00010109460; origin=GNPS
NUM_PEAKS=41
COMPOUND_NAME=
PRECURSOR_MZ=339.207
COLLISION_ENERGY=102040
PARENT_MASS=338.1997235480092
52.63303 0.00014573489897924352
58.065552 0.00024316074791762345
63.99197 0.00014530976800205785
64.052696 0.00015572547694310649
66.428368 0.00013741650285897748
66.741913 0.00017017993016741885
70.065948 0.000162527572578077
82.395844 0.00015868722275083323
82.936737 0.0001439068357773452
87.043991 0.0007892840012103195
92.374237 0.00016717567126197353
96.080597 0.0002519042750150751
110.09581 0.0005246683099773932
124.111572 0.000313208161925247
127.606682 0.00014332582344185813
136.112381 0.00020334014638790016
156.080582 0.00019954230965837496
168.081619 0.00016577273903726087
182.096207 0.00028003377467219283
194.098511 0.0002196368338466837
196.112259 0.0018184694128465058
197.107086 0.005865135303318482
202.087097 0.0002949700430039823
208.111786 0.0003313895967162203
209.482544 0.0002156831157588571
209.501328 0.00019856450841084793
222.127121 0.0009612353104493453
225.138306 0.019856493354182513
236.142242 0.00031506456719229106
251.153824 0.0009088024899297809
253.168579 0.0003655842983145201
279.148285 0.0010180044669362035
279.184662 0.001515832841220609
280.191315 0.0002395329635789725
307.178436 0.007450321177950644
308.163208 0.000565126607972895
311.172852 0.001412228422080464
337.60141 0.0009929075682496768
338.193878 0.000323878949452607
339.205963 1.0
340.822418 0.0008827986451585914
END IONS

BEGIN IONS
CHARGE=1+
PRECURSORTYPE=M+H
FORMULA=C23H26N2O2
ONTOLOGY=
INCHIKEY=QQBFAVBJOBJSKG-UHFFFAOYSA-N
INCHI=InChI=1S/C23H26N2O2/c1-4-27-16-9-7-8-15(12-16)22-21-19(13-23(2,3)14-20(21)26)24-17-10-5-6-11-18(17)25-22/h5-12,22,24-25H,4,13-14H2,1-3H3
SMILES=CCOc1cccc(C2Nc3ccccc3NC3=C2C(=O)CC(C)(C)C3)c1
IONMODE=positive
INSTRUMENTTYPE=LC-ESI-Orbitrap
INSTRUMENT=Orbitrap
COMMENT=DB#=CCMSLIB00010103857; origin=GNPS
NUM_PEAKS=35
COMPOUND_NAME="11-(3-ethoxyphenyl)-3,3-dimethyl-2,3,4-trihydro-5H,10H,11H-benzo[1,2-f]benzo[b ]1,4-diazepin-1-one "
PRECURSOR_MZ=363.207
COLLISION_ENERGY=102040
PARENT_MASS=362.1997235480092
55.334751 0.00041614441312798806
57.99564 0.00037006408955645733
61.778061 0.0004128275774981606
62.387211 0.0003612981668204849
66.775459 0.00038036997169199247
73.970261 0.0005148202731153533
82.418556 0.0004963407603206006
83.049347 0.006811358882681273
90.976379 0.0005431318343842371
92.399986 0.0005741679392061936
133.075745 0.003936373142113021
136.245773 0.0004532218971328444
157.075745 0.002065914763721068
173.106781 0.000960697748496437
175.075348 0.0008127431877230646
185.070236 0.006987269629477476
211.0849 0.000616457593486493
213.124954 0.0005460932947680116
215.118362 0.0029621711342665722
223.12207 0.0018678522932542316
226.952911 0.0004246734190332585
231.13913 0.0007831285838853199
235.130615 0.0005331813274947549
241.133179 0.889629214498694
242.136261 0.0009962352731017305
255.135635 0.0005235861958513256
279.146332 0.0004924316326140183
291.143127 0.0004701614505280343
307.141815 0.0005338920779868608
317.164459 0.0007931975491901531
334.168182 0.0005075943097789436
345.196381 0.001687677043505393
346.18338 0.0006076916707505205
361.191376 0.001527402807535519
363.206238 1.0
END IONS

BEGIN IONS
CHARGE=1+
PRECURSORTYPE=M+H
FORMULA=C18H25NO5
ONTOLOGY=
INCHIKEY=YWDCGKQJXZBZGP-UHFFFAOYSA-N
INCHI=InChI=1S/C18H25NO5/c1-23-15-8-7-12(11-16(15)24-2)9-10-19-17(20)13-5-3-4-6-14(13)18(21)22/h7-8,11,13-14H,3-6,9-10H2,1-2H3,(H,19,20)(H,21,22)
SMILES=COc1ccc(CCN=C(O)C2CCCCC2C(=O)O)cc1OC
IONMODE=positive
INSTRUMENTTYPE=LC-ESI-Orbitrap
INSTRUMENT=Orbitrap
COMMENT=DB#=CCMSLIB00010107885; origin=GNPS
NUM_PEAKS=33
COMPOUND_NAME="2-{N-[2-(3,4-dimethoxyphenyl)ethyl]carbamoyl}cyclohexanecarboxylic acid "
PRECURSOR_MZ=336.181
COLLISION_ENERGY=102040
PARENT_MASS=335.1737235480092
60.461102 0.0014886305955224125
60.654572 0.0013379897873017283
69.611542 0.0014072284196516081
72.104843 0.0014844201381497848
79.054413 0.00205984931240892
81.070107 0.04624532463795914
82.394218 0.0014343624782752096
105.069878 0.007791685282346254
109.064461 0.016682767767545327
118.116402 0.0013805621896249651
127.075287 0.009339262281085456
133.064529 0.01404468230929552
134.0728 0.002399025045203938
135.045074 0.0017089778646899349
135.080246 0.006096742275565078
138.067505 0.016294002203472692
150.067322 0.08140966112835579
150.089432 0.002418673846276201
154.085907 0.002332125555838852
155.070145 0.0256903395733871
158.399399 0.0013192766434233826
165.090881 1.0
180.101929 0.014660812571490057
182.11734 0.15706409485692632
191.963577 0.0014446547074082998
208.095978 0.0049206211828110415
253.828629 0.0013974040191154764
266.910614 0.001331908015541266
268.132355 0.0052569899440243085
286.143127 0.05994100681392352
318.16922 0.9312465059051664
336.179993 0.17636249231006743
336.227966 0.0024846376784473704
END IONS

BEGIN IONS
CHARGE=1+
PRECURSORTYPE=M+H
FORMULA=C24H32O6
ONTOLOGY=
INCHIKEY=JEJFTTRHGBKKEI-UHFFFAOYSA-N
INCHI=InChI=1S/C24H32O6/c1-13-9-15-11-17(25-3)21(27-5)23(29-7)19(15)20-16(10-14(13)2)12-18(26-4)22(28-6)24(20)30-8/h11-14H,9-10H2,1-8H3
SMILES=COc1cc2c(c(OC)c1OC)-c1c(cc(OC)c(OC)c1OC)CC(C)C(C)C2
IONMODE=positive
INSTRUMENTTYPE=LC-ESI-Orbitrap
INSTRUMENT=Orbitrap
COMMENT=DB#=CCMSLIB00010106471; origin=GNPS
NUM_PEAKS=104
COMPOUND_NAME=Schizandrin A
PRECURSOR_MZ=417.227
COLLISION_ENERGY=102040
PARENT_MASS=416.2197235480092
55.05463 0.0006382656310341918
60.547459 0.000580401328896857
73.967339 0.0006094933261040253
75.044228 0.0022517525530625243
82.412437 0.0005792824059273505
83.085487 0.003984804386689548
87.080322 0.0022619827059265833
92.392693 0.0006964496254485283
105.054367 0.0007079585474205948
152.664246 0.00047841949253326716
167.069565 0.0011472157360211356
181.084381 0.001076563742803727
191.896759 0.0005573834849527239
204.114777 0.0005752862524648274
205.085205 0.0008073828455681699
205.121338 0.0006825430113989478
221.115814 0.003139218314019657
235.132263 0.003834069478083176
241.085236 0.0028212843445413185
242.092026 0.00608230541609868
243.099915 0.0009317431413218892
245.116562 0.000669435628041872
255.102005 0.002158722100454986
256.108795 0.0009621139076370649
257.079285 0.0007054010092045801
258.087891 0.0031705481571658385
260.139618 0.0019635499653453572
269.07785 0.0008148956140777133
269.117096 0.0008248060746647707
270.088318 0.0029892826361057902
270.121124 0.0009042496054997302
271.096191 0.0037042744136204257
271.130646 0.0005778437906808423
272.104156 0.0013118572586770878
273.112152 0.00707287193638891
279.135834 0.0012686988012818382
280.144928 0.0007739750026214767
282.087463 0.0012047603458814682
282.125366 0.0005680931762322858
283.096252 0.002146094255513413
284.103516 0.0008232076132797615
285.111267 0.05745893233009634
286.081909 0.0021400201022503777
286.118958 0.006735436738013458
287.127167 0.002898809721714267
289.106903 0.0008163342293242217
295.132233 0.0030137390952964314
296.139099 0.0007533548507548574
298.11853 0.0034462827460799332
299.090942 0.0030305229398390286
299.126648 0.0028674798785680855
300.098755 0.0044911969534604775
300.136108 0.0028652420326290727
301.106171 0.11393129429336497
302.115509 0.004050021611197926
303.121002 0.0009239106805353439
304.128784 0.000724742391963192
307.128693 0.0013348751026212209
311.163025 0.0030604141677387014
312.134186 0.0026067708266730777
313.105469 0.004567443561525418
313.143341 0.001970103657023895
314.113281 0.003956671466313386
315.12149 0.027056676325635996
316.129517 0.29188016782565773
317.10083 0.01701945775074744
317.138031 0.0036342618049570205
319.117584 0.0010821583576512593
320.123749 0.003629626266940494
323.127899 0.0024226280751200127
324.133575 0.00132432525748016
327.122009 0.0012410454193211781
327.157837 0.0043906537323433956
328.127777 0.001061058667369137
329.137543 0.00645218938058982
330.147217 0.003906959317239598
331.115967 0.00692773164263007
331.153778 0.0007957140774576024
332.124115 0.016629593018943685
333.132477 0.0008567753023649556
334.140503 0.003017415556481953
335.149048 0.0042306477477039705
339.15863 0.008354198582612321
340.166107 0.002916552643087869
341.137177 0.001190374193416385
343.154022 0.0024282226899675447
343.19281 0.001012944979680359
344.161652 0.0009231114498428393
345.131378 0.012995011521709662
346.139648 0.0038986473180375497
347.147797 0.11637933790450664
354.182343 0.0013136155662005979
355.150696 0.014343793238380465
355.191406 0.0018393495157301388
356.161987 0.004402961885007967
359.144318 0.0007571911580788796
370.176147 0.007412385134564874
371.184143 0.012082449917007885
373.164917 0.002012622729865141
385.199219 0.0025874294439144655
386.207367 0.03508590770867594
387.174835 0.00828834197354994
402.202271 0.08691425981007721
417.225922 1.0
END IONS

BEGIN IONS
CHARGE=1+
PRECURSORTYPE=M+H
FORMULA=C18H21NO3
ONTOLOGY=
INCHIKEY=BWFSLFAIZRXQIP-UHFFFAOYSA-N
INCHI=InChI=1S/C18H21NO3/c1-5-13-8-6-7-12(2)17(13)19-18(20)14-9-10-15(21-3)16(11-14)22-4/h6-11H,5H2,1-4H3,(H,19,20)
SMILES=CCc1cccc(C)c1N=C(O)c1ccc(OC)c(OC)c1
IONMODE=positive
INSTRUMENTTYPE=LC-ESI-Orbitrap
INSTRUMENT=Orbitrap
COMMENT=DB#=CCMSLIB00010104885; origin=GNPS
NUM_PEAKS=31
COMPOUND_NAME="(3,4-dimethoxyphenyl)-N-(6-ethyl-2-methylphenyl)carboxamide "
PRECURSOR_MZ=300.159
COLLISION_ENERGY=102040
PARENT_MASS=299.1517235480092
60.747681 0.0004955713887095035
79.054428 0.0010757456138672694
91.054543 0.0007829659487046059
104.285782 0.0005708211477614756
107.049149 0.00864578634651933
109.064789 0.0005821582112721305
114.008507 0.0004628356178224874
119.085617 0.003247926982508753
120.080887 0.0007821156689413068
122.03537 0.0007411605270090659
124.051849 0.08315084203913525
126.031273 0.000745128499237795
132.080353 0.0009601075660585891
134.060257 0.0006789483909943469
134.096375 0.01535477710553715
136.216385 0.0005130021238571354
137.095795 0.0006381349623559892
139.075287 0.11200862863903796
144.08078 0.02336143649664331
144.092529 0.0006286401716658156
155.069427 0.0008213702513469494
162.091156 0.027443062787066846
163.805756 0.0005370933838172771
165.054535 0.49875370243694434
210.187393 0.0005295825792414683
253.875214 0.000467087016638983
272.128662 0.0006541485645647892
282.149902 0.000925812948938858
285.134918 0.0017751007191807952
300.158905 1.0
301.520538 0.0005747891199902048
END IONS

BEGIN IONS
CHARGE=1+
PRECURSORTYPE=M+H
FORMULA=C21H27NO4
ONTOLOGY=
INCHIKEY=IWFAKKQEWNYNRB-UHFFFAOYSA-N
INCHI=InChI=1S/C21H27NO4/c1-5-25-19-11-14-9-10-22-21(17(14)13-20(19)26-6-2)16-8-7-15(23-3)12-18(16)24-4/h7-8,11-13,21-22H,5-6,9-10H2,1-4H3
SMILES=CCOc1cc2c(cc1OCC)C(c1ccc(OC)cc1OC)NCC2
IONMODE=positive
INSTRUMENTTYPE=LC-ESI-Orbitrap
INSTRUMENT=Orbitrap
COMMENT=DB#=CCMSLIB00010103665; origin=GNPS
NUM_PEAKS=96
COMPOUND_NAME="1-(6,7-diethoxy(1,2,3,4-tetrahydroisoquinolyl))-2,4-dimethoxybenzene "
PRECURSOR_MZ=358.201
COLLISION_ENERGY=102040
PARENT_MASS=357.19372354800925
55.393051 0.0003083264635425782
65.038788 0.001468603982303031
67.054573 0.00034726567084840496
73.330833 0.00028857971250670524
78.046951 0.00044530655757037086
79.05484 0.00041350389537575435
82.041557 0.00034463277071028855
91.054291 0.011854494298177604
92.388443 0.00031657159818562693
93.070213 0.0022480117100312246
93.908867 0.000330428967333608
95.048927 0.0005025374921515326
95.085403 0.0005953818654430055
103.054077 0.0003942421522600607
106.041458 0.0005617084584134116
108.056877 0.0043442159410463175
109.064194 0.00043726928346454183
118.064751 0.002820390342688582
119.048988 0.005306471654682121
121.064629 0.06031898000894355
123.043938 0.0029668627345827417
123.080238 0.05037673336634159
125.059509 0.0004274998382152152
131.049026 0.002035786101529895
133.064529 0.00039715219978113674
136.051895 0.007050698709338495
136.075516 0.00040976240570579945
136.230545 0.0002959934050008751
137.059601 0.015018478108890376
139.07518 0.03218346269880301
145.063446 0.000282898191156033
145.516113 0.0003147008533506495
146.059937 0.006984806919039845
147.043701 0.0034734881506329283
147.066742 0.00036735885611297747
148.075287 0.00048978871253539
149.059296 0.0006386861440304463
149.070709 0.004991840088177211
150.054749 0.00043117204103943017
150.596313 0.0004219568905560228
151.075165 0.6496692176697532
151.556168 0.0003701996167883136
157.063919 0.0003184423430206044
160.074051 0.0003445634838645487
161.059982 0.0004271534039865157
161.083099 0.003941590080451728
162.055466 0.0010764404354151674
162.091858 0.0003307754015623075
164.070053 0.002636710914632093
165.090744 0.0246637613306511
166.085922 0.011613999656614393
166.573425 0.00032703391189235266
174.067215 0.004547711406984419
174.090652 0.0035536530311539986
175.075195 0.01562162010105625
175.098892 0.05302078868662211
176.106735 0.0015130168504223103
177.077103 0.0012085011633954268
177.092499 0.00040442731858382675
178.085815 0.010705025527352576
179.106781 0.00856794205735094
183.009476 0.00031158294529235375
190.085632 0.0004942230706627439
191.093521 0.008013716578277437
192.101212 0.009125146870791257
193.122192 0.011523580322923816
203.106277 0.01668870681229653
207.124893 0.025857019387983748
218.11821 0.0004920751784448069
220.132736 0.07125549288791315
239.105865 0.0007045086474833563
241.085815 0.0014065229685200759
252.077637 0.0006993121340528633
253.08429 0.0007187124508600368
267.100037 0.0030140470765316167
268.107819 0.0006294709935470389
269.11673 0.001961302742359497
281.117981 0.0021818427723496155
282.122131 0.00048396861749323795
283.096741 0.00037186250108607133
285.113007 0.00038308697009593597
295.131317 0.00037643543290490506
296.139343 0.004892274890848968
297.112213 0.0008908902625237013
297.148193 0.002487674909445557
310.155762 0.0015321400198465241
312.133179 0.002636710914632093
313.142761 0.0042035636441943094
314.13916 0.0006700730851506234
327.159546 0.00035523365810849407
329.166718 0.002303233326085929
341.173889 0.05180875389409395
343.175903 0.0013080663607236706
356.457184 0.0009366888675577786
358.200409 1.0
359.954773 0.0012892896255281563
END IONS

BEGIN IONS
CHARGE=1+
PRECURSORTYPE=M+H
FORMULA=C19H23NO4
ONTOLOGY=
INCHIKEY=YHLCCQHFWTVUQJ-UHFFFAOYSA-N
INCHI=InChI=1S/C19H23NO4/c1-2-14-3-4-17-16(11-14)15(12-18(21)24-17)13-20-7-5-19(6-8-20)22-9-10-23-19/h3-4,11-12H,2,5-10,13H2,1H3
SMILES=CCc1ccc2oc(=O)cc(CN3CCC4(CC3)OCCO4)c2c1
IONMODE=positive
INSTRUMENTTYPE=LC-ESI-Orbitrap
INSTRUMENT=Orbitrap
COMMENT=DB#=CCMSLIB00010104051; origin=GNPS
NUM_PEAKS=80
COMPOUND_NAME="4-[(1,4-dioxa-8-azaspiro[4.5]dec-8-yl)methyl]-6-ethylchromen-2-one "
PRECURSOR_MZ=330.17
COLLISION_ENERGY=102040
PARENT_MASS=329.16272354800924
52.018051 0.00019928852012052653
52.512829 0.00017327791592824137
55.018669 0.00032986175316579794
56.04998 0.00044922678040457554
59.434422 0.00019413369128969184
70.065491 0.0019247374182214782
71.049522 0.007201437752698932
74.720596 0.00017805440869809736
80.049713 0.0003946518036083991
82.065361 0.0017590735155204329
83.049393 0.0032477313314563452
84.044662 0.0026457986584392445
87.044281 0.0030781421921226458
92.373894 0.000302479680752465
94.065331 0.0002285622728387529
98.060097 0.0060328522443509934
99.044167 0.006015590661568841
99.051048 0.0003506229445120037
100.075752 0.0007897292352853992
112.075661 0.044473971472136824
115.075371 0.006028312211619249
115.084198 0.0003845313139772191
117.069801 0.00042671578477634334
118.647324 0.00020718628539345674
127.075157 0.00027859721690318503
128.071167 0.00029798694002834306
131.085968 0.0003993337123630104
133.065186 0.00031789687523734676
142.08609 0.00220428047527711
143.0858 0.001038343319356023
145.064011 0.0002803470211852115
145.10083 0.0004827568138088122
149.060364 0.0003989080842944094
156.102142 0.0031010788158194794
159.080231 0.016335652564915138
160.0755 0.0002633218984411703
161.059998 0.0022001187786063444
161.096222 0.0020378599004541075
162.091537 0.0014196114848073007
171.080154 0.0020198889375576193
173.095993 0.010010488421450482
174.091644 0.0017303672668936747
175.075302 0.032936187664522984
187.075317 0.01803929984750219
188.106689 0.007869200900326324
188.125748 0.0003633917865700346
189.090851 0.010429306440953894
199.077698 0.0007241825127208407
200.107361 0.0026061679560517264
201.090317 0.0018374363721506447
202.086121 0.00025514038112250606
202.122437 0.00029368336733471043
204.101944 0.0014573505068899253
212.106644 0.0003758295845747091
213.090393 0.000268192975226271
214.085754 0.0010913103678930399
214.122223 0.007026835660557265
215.107193 0.000902520673464672
216.101776 0.1722263781387587
224.142227 0.0004384442026666828
226.084747 0.0003326519816155158
226.123032 0.0010541388499018833
228.101608 0.04862885809380483
230.118515 0.00042553348458578493
239.107239 0.00043499188611025225
240.106979 0.0006737219405878075
240.138062 0.014293772843813132
242.117249 0.028250826593355226
244.133545 0.005632761859866026
256.133575 0.0009252208371233936
257.119293 0.0002740098921638184
258.149567 0.0023464402501898536
268.132812 0.058587278014863124
270.148987 0.000838581879159273
286.143341 0.12669429528807974
302.172211 0.00034613020378788175
315.146484 0.00029391982737282207
328.622742 0.00034821105212326454
330.169403 1.0
331.728882 0.00044572717184052264
END IONS

BEGIN IONS
CHARGE=1+
PRECURSORTYPE=M+H
FORMULA=C16H21N3O3S
ONTOLOGY=
INCHIKEY=RQNWUUHQIGHHPC-UHFFFAOYSA-N
INCHI=InChI=1S/C16H21N3O3S/c1-16(2,3)9-13-18-19-15(23-13)17-14(20)10-6-11(21-4)8-12(7-10)22-5/h6-8H,9H2,1-5H3,(H,17,19,20)
SMILES=COc1cc(OC)cc(C(O)=Nc2nnc(CC(C)(C)C)s2)c1
IONMODE=positive
INSTRUMENTTYPE=LC-ESI-Orbitrap
INSTRUMENT=Orbitrap
COMMENT=DB#=CCMSLIB00010104048; origin=GNPS
NUM_PEAKS=28
COMPOUND_NAME="(3,5-dimethoxyphenyl)-N-[5-(2,2-dimethylpropyl)(1,3,4-thiadiazol-2-yl)]carboxa mide "
PRECURSOR_MZ=336.138
COLLISION_ENERGY=102040
PARENT_MASS=335.1307235480092
57.07029 0.0027006355410853886
92.391327 0.0007750537110299267
96.559753 0.00045976759923526853
98.096367 0.006073842018588275
109.064636 0.0009031202085975506
117.011902 0.0005075337409377425
118.667587 0.0004939285241060781
122.035767 0.006720829232050579
125.059937 0.001713222141248178
134.810196 0.0004886047436067311
137.059082 0.003414909424747771
142.006546 0.0010913750023661248
155.069992 0.05455603219822446
165.054352 0.5468315224592554
173.074066 0.002169144787900585
178.085724 0.0009831247988794033
180.065033 0.005962190510893638
198.069595 0.004171182021238335
212.257675 0.0006804087243748698
222.021347 0.0024819168922372184
277.154236 0.004611133326392701
280.074249 0.01765409978420943
294.20755 0.0004826894319407901
295.132385 0.0005313428703931553
321.114929 0.0004980692422722368
332.185211 0.0005761513562626588
336.13678 1.0
337.751648 0.0007229989683696454
END IONS

BEGIN IONS
CHARGE=1+
PRECURSORTYPE=M+H
FORMULA=C14H11F3N4OS
ONTOLOGY=
INCHIKEY=WGCHSAGAVGYEMC-UHFFFAOYSA-N
INCHI=InChI=1S/C14H11F3N4OS/c1-21-11-10(12(22)19-7-18-11)20-13(21)23-6-8-3-2-4-9(5-8)14(15,16)17/h2-5,7H,6H2,1H3,(H,18,19,22)
SMILES=Cn1c(SCc2cccc(C(F)(F)F)c2)nc2c(O)ncnc21
IONMODE=positive
INSTRUMENTTYPE=LC-ESI-Orbitrap
INSTRUMENT=Orbitrap
COMMENT=DB#=CCMSLIB00010110272; origin=GNPS
NUM_PEAKS=38
COMPOUND_NAME=9-methyl-8-{[3-(trifluoromethyl)phenyl]methylthio}hydropurin-6-one
PRECURSOR_MZ=341.068
COLLISION_ENERGY=102040
PARENT_MASS=340.0607235480092
53.76807 0.0004444872421958052
54.055809 0.00047229160913947395
60.118229 0.00038556239115004854
63.30407 0.0004742047536539466
63.89613 0.0004261210548568681
66.746857 0.000544863557721802
70.127197 0.00044652792967790937
72.419479 0.0004302024298210763
75.045578 0.0004662970896607931
82.400459 0.0004662970896607931
92.381699 0.00047063355056026435
109.04467 0.004107521272572714
118.040657 0.0009419048159586863
139.035004 0.0006248329984267575
140.04303 0.012837454778046539
148.242081 0.0004198714494429242
149.005341 0.0031013348009277476
159.041443 0.6724121372438857
159.563293 0.00050494260885314
171.007233 0.013798491039149952
182.025375 0.054160100860978805
183.033203 0.001928832299491295
193.055817 0.00043211557433554896
200.068069 0.01886896171734055
238.085281 0.0006044261236057162
256.07547 0.0034905959381391098
269.084229 0.0008084948718161289
281.047485 0.0037538446233305422
287.072998 0.002039922224298338
288.081177 0.01864397592243857
299.060455 0.004350363082943105
301.054626 0.011421600294369168
319.063995 0.006369623346485139
320.070038 0.0038359822944852334
321.060913 0.3763190971998579
339.440155 0.0008110457311687591
341.067078 1.0
342.707611 0.0007111795875132884
END IONS

BEGIN IONS
CHARGE=1+
PRECURSORTYPE=M+H
FORMULA=C33H40N2O9
ONTOLOGY=
INCHIKEY=QEVHRUUCFGRFIF-UHFFFAOYSA-N
INCHI=InChI=1S/C33H40N2O9/c1-38-19-7-8-20-21-9-10-35-16-18-13-27(44-32(36)17-11-25(39-2)30(41-4)26(12-17)40-3)31(42-5)28(33(37)43-6)22(18)15-24(35)29(21)34-23(20)14-19/h7-8,11-12,14,18,22,24,27-28,31,34H,9-10,13,15-16H2,1-6H3/t18-,22+,24+,27-,28+,31+/m1/s1
SMILES=COC(=O)C1C2CC3c4[nH]c5cc(OC)ccc5c4CCN3CC2CC(OC(=O)c2cc(OC)c(OC)c(OC)c2)C1OC
IONMODE=positive
INSTRUMENTTYPE=LC-ESI-Orbitrap
INSTRUMENT=Orbitrap
COMMENT=DB#=CCMSLIB00010108900; origin=GNPS
NUM_PEAKS=178
COMPOUND_NAME=Isoreserpine
PRECURSOR_MZ=609.281
COLLISION_ENERGY=102040
PARENT_MASS=608.2737235480092
56.04982 0.0010359927092914469
67.691093 0.0010899256244068225
68.049797 0.0002666975140907252
69.033913 0.00023698934148887145
70.065407 0.0021804521726589417
71.04924 0.0010780198207218823
75.044243 0.0002611389685217311
79.054398 0.001728594998736182
80.049713 0.0009641823097784957
81.033768 0.0003112785518636714
81.069893 0.0009572716855575841
91.054314 0.001677741818327952
93.070084 0.0003865067057467474
94.065224 0.004733251782959828
95.049423 0.00021723397007474365
97.064499 0.0003990885487576463
105.069649 0.0003903000375201826
106.064774 0.0017747159038627009
108.056824 0.0004334538811605492
108.080643 0.001219274482106929
109.064507 0.001863502402005283
111.043938 0.004962166210277525
111.080116 0.000356197609299597
113.059502 0.00028247176502976264
115.053909 0.0009449903044693336
117.069557 0.0008061768962058044
118.064941 0.0014644889687282987
119.085098 0.0002902837750186192
120.080757 0.003874681838992221
121.064362 0.0007871351218579664
122.036201 0.000963543828192868
123.080009 0.0012123263001456864
124.051773 0.0011760455229859004
126.091087 0.0004108065637409312
128.046707 0.0009559947223863286
129.069244 0.00026008735179246196
130.065018 0.0012148802264881973
131.049149 0.000274659755040906
131.07283 0.002162612246001697
131.085205 0.00113311702578752
132.080688 0.0032010462084146613
133.064499 0.00029276258588046796
135.080124 0.0002805563202728795
136.0755 0.0008413684988959903
137.058685 0.000662556097179902
139.075378 0.004611038895922619
141.018295 0.0012864652795591624
142.064529 0.0009248969133922264
143.072662 0.003994190568725594
144.080734 0.0033734737942744727
145.08815 0.0008050126062555421
146.096436 0.00026350510616258673
147.067276 0.0007175781867648776
147.080383 0.002394794196728195
147.092499 0.00024175917451091372
148.075394 0.010955329950382469
149.059998 0.0010571752748381542
149.094543 0.00024506425566004535
150.091217 0.0005038370865409208
152.046677 0.004493032475802487
156.041122 0.002684176585978869
156.080017 0.00029321327876444047
158.059616 0.0004505802107515041
159.067657 0.00946485102534509
159.078934 0.000345343422343926
160.075485 0.008170273273874422
161.059738 0.0009992236815073573
161.082306 0.001551885830478632
162.091476 0.002016700424815601
163.075027 0.0011496424315331783
163.098938 0.0005022221037066861
164.106705 0.0019157827765460926
165.090256 0.00026662239861006314
166.086517 0.0005040248752425761
167.071198 0.00046736852067947964
169.085846 0.0011098687845226055
172.075317 0.0021251671788916487
173.083694 0.000957159012336591
174.091141 0.2610610737682845
175.075287 0.0013879838516739672
176.106827 0.004119408074989286
178.085297 0.0016163349128866993
179.069611 0.0008612365435311111
181.086166 0.0005339583942864161
184.075378 0.0002354119163949677
185.081177 0.0017400125517968187
186.091263 0.0028945374895730323
187.099457 0.0008697621505862576
188.106644 0.004681309428081998
190.085571 0.002382775719822262
192.101593 0.032678351380453524
193.085358 0.0014418792090490117
195.064926 0.3401444921386016
198.091522 0.000949947926193031
199.100906 0.0015350224050699945
200.107086 0.00712755772906372
201.101761 0.0013068215748185867
204.101334 0.008618862924388382
206.117493 0.0005164940450324818
207.100632 0.0004661666729888863
210.090958 0.000913742264513907
210.113022 0.00043533176817710126
211.099365 0.0003892859785312445
212.106613 0.001781138277459309
214.110138 0.0012285888017090274
215.117416 0.0047255524461919645
222.111038 0.002049375658903607
224.106659 0.0011556516699861448
224.12764 0.016389709629842177
225.113846 0.00022384413237300696
226.122635 0.0004240268883374578
227.116882 0.0018842718324083487
228.125778 0.0013768292027956479
229.134354 0.0008550770741168203
236.12764 0.0436985435483877
237.114807 0.0002467167962346112
238.122879 0.0015314544197385456
240.126404 0.00024803131714619766
242.114624 0.00035202870012285135
247.098801 0.0004021682834647917
248.107361 0.0010742264889484472
250.122086 0.0010490628029266493
251.118271 0.0004531341370940149
253.133209 0.0026064696212339446
254.140076 0.001498290935026236
262.121613 0.001569988661318194
263.127106 0.00042586721761367883
265.133209 0.001872591375165395
266.141541 0.0011182066028760965
267.148804 0.0009240706431049435
273.117615 0.00022267984242274467
274.119171 0.0002841618633446595
275.13028 0.0003043679276427598
276.136993 0.0032151303610388022
281.1651 0.000278265298112686
286.142395 0.0002476557397428872
288.139069 0.0021822173864545005
289.14505 0.00033486481279156543
290.116852 0.0011277462689201813
294.144714 0.0003249120116038394
304.133545 0.0016118279840469743
305.165466 0.0016529161519691336
308.126556 0.0003724225531226069
308.163879 0.0005085318040823011
316.132446 0.000896428146221297
322.144348 0.0015675474081966764
333.159485 0.0018416062393922857
336.158203 0.005494734968171693
337.19165 0.0004770584176848883
338.09903 0.0004299985690500934
348.159485 0.0021071770212730797
350.162964 0.0008871513843595297
353.126221 0.0010771184349539374
363.173401 0.000303616772836139
365.184814 0.022527958920845935
368.141998 0.0036334109151056103
368.188202 0.0012394429886646984
380.18515 0.0008926348144478618
381.182098 0.0005232168805517383
382.186005 0.001460357617291884
395.191376 0.00038474149195118847
396.200775 0.001007937077264159
397.211273 0.10862352008418943
404.17157 0.000369793511299434
413.205231 0.0024993549458098142
416.166962 0.00040712590518848915
434.176636 0.00037584030749273164
436.195068 0.009102644177592526
448.195496 0.04990815254602044
577.255188 0.0035818816953714218
591.2724 0.0002590357350631928
593.255798 0.00030816125941619495
594.252136 0.00294133443402551
605.304565 0.00031169168700731286
605.415771 0.0004907294351653874
608.263123 0.0009091226624531889
609.279419 1.0
613.186951 0.00042530385150871323
END IONS

BEGIN IONS
CHARGE=1+
PRECURSORTYPE=M+H
FORMULA=C33H40N2O9
ONTOLOGY=
INCHIKEY=QEVHRUUCFGRFIF-UHFFFAOYSA-N
INCHI=InChI=1S/C33H40N2O9/c1-38-19-7-8-20-21-9-10-35-16-18-13-27(44-32(36)17-11-25(39-2)30(41-4)26(12-17)40-3)31(42-5)28(33(37)43-6)22(18)15-24(35)29(21)34-23(20)14-19/h7-8,11-12,14,18,22,24,27-28,31,34H,9-10,13,15-16H2,1-6H3/t18-,22+,24-,27-,28+,31+/m1/s1
SMILES=COC(=O)C1C2CC3c4[nH]c5cc(OC)ccc5c4CCN3CC2CC(OC(=O)c2cc(OC)c(OC)c(OC)c2)C1OC
IONMODE=positive
INSTRUMENTTYPE=LC-ESI-Orbitrap
INSTRUMENT=Orbitrap
COMMENT=DB#=CCMSLIB00010110971; origin=GNPS
NUM_PEAKS=163
COMPOUND_NAME=reserpine
PRECURSOR_MZ=609.281
COLLISION_ENERGY=102040
PARENT_MASS=608.2737235480092
56.049789 0.0007408937990166137
58.05455 0.0003330983438627284
65.038857 0.00033825252146984223
68.049698 0.0004469518193631529
70.065247 0.0014432466580158539
71.049294 0.0021132897469406495
71.185089 0.0003910251459247687
71.829323 0.00031878973140118857
75.044373 0.0007653569106444076
79.054337 0.0019170463577503907
80.049507 0.0013070071275352783
81.03373 0.0004335663431894543
91.053963 0.0021017505433426334
94.064987 0.0030658894679688633
97.064873 0.0003930252745484248
104.286827 0.0004000257247312212
105.070183 0.0005124944957998837
106.064774 0.0018655045816792525
108.080193 0.0013713958836122076
109.064346 0.002294609099477474
111.043633 0.0035682294646024928
113.06015 0.00043748967241277975
115.053947 0.0007042760595989096
117.069778 0.00061080851045498
118.065132 0.001307545623703186
120.080681 0.003285595904475088
121.064651 0.0005731907067254479
121.113564 0.0003201744358329505
123.080116 0.0014587091908371953
124.052094 0.0007598950209413467
126.091049 0.000395333115268028
128.046967 0.0007072762525343937
129.069 0.00048141557410922735
130.064911 0.0007727420009471379
131.072662 0.001595948785629599
131.085175 0.0019908203327537064
132.080811 0.003319444235029268
137.05928 0.0005413425047949237
139.075195 0.003870556598870512
141.017487 0.0008344382761845301
142.064453 0.0007442786320720317
143.049271 0.00047041486667911877
143.071793 0.003125354830510639
144.080505 0.003641849583557835
145.065186 0.0003683313788486706
146.059387 0.0004167960339603378
147.067261 0.0004980320272903704
147.07988 0.0026847111091144013
148.075226 0.007222541388046185
149.059006 0.0015394066879993206
150.091003 0.0007138920625972563
152.046524 0.004318431554521506
156.041702 0.003081890496958112
158.059357 0.0007934356393995798
159.067688 0.008314150048418498
159.081192 0.0005515739319851646
160.075333 0.010212041328196182
161.060059 0.0006428874964574645
161.082581 0.002637323446338549
162.090759 0.0032816725752517623
163.099655 0.000427565957318486
164.106705 0.0014190143304600204
166.086716 0.000587730103258948
167.070236 0.00045518311792973765
169.086166 0.0006649658393416684
172.075256 0.0026745566099481474
173.083893 0.001340009249825604
174.091141 0.22155209365771522
175.075211 0.0016840313730944543
176.107117 0.002947189526957272
178.085953 0.0022338359605279232
181.084976 0.000812052221204379
185.081741 0.0015851788622714507
186.090729 0.004356587854418946
187.099457 0.0006298866604036998
188.106491 0.008852261576205977
189.102417 0.0006001155151208185
190.086151 0.002962113563610706
192.101532 0.024895524050623563
193.08696 0.000678351315515367
195.064941 0.3181907698064276
198.091202 0.002081518473034112
199.098969 0.0017058020038827112
200.106964 0.008384231478270448
201.10202 0.001655644932243335
204.101578 0.00849293077616376
207.101715 0.0008586706037403637
210.090591 0.001701417106515465
210.112503 0.0005374961035955851
211.098251 0.0006706585131166896
212.106613 0.0023196107072731755
214.108215 0.0033371376805462257
215.116806 0.0053432666900733
216.101456 0.0004831849186609231
222.112396 0.0027542540427984447
224.106308 0.0016558757163152953
224.127487 0.010788616867977049
226.122772 0.0007471249689595423
227.117035 0.002874184832193824
228.125412 0.0008739792805137315
229.133194 0.0005084173105285848
236.127808 0.03167242139571437
237.114777 0.0007819733638255507
238.123077 0.0024679279375196743
248.10643 0.0015652545040588763
249.115524 0.000542957993298646
250.12085 0.0020483624946958127
251.117859 0.00202720728809945
252.133118 0.0007417400072804682
253.132263 0.0025692421451102548
254.139099 0.0004902622968677063
262.122345 0.0020499010551755484
262.854736 0.00037410098064767855
265.133942 0.0032109757212079176
266.140106 0.001669876616680888
267.149475 0.0005288032368850797
274.12088 0.0007835119243052861
276.137238 0.004689763126305661
277.14386 0.0006408104398098216
288.104858 0.0003967947477237767
288.137451 0.00319351305976292
289.111023 0.00046818395398350233
289.146332 0.0006863518300099914
290.115173 0.0016731845217123193
302.118256 0.0005061094698089816
304.133301 0.003395756834824147
305.164093 0.0023847687435899724
308.123352 0.000567036464806506
308.16272 0.0011980001175460207
309.135895 0.00040841087934577946
316.131348 0.0007495097377031323
322.143188 0.002302071117804191
333.161438 0.003076197823183091
334.142822 0.0006223477140529961
336.117859 0.0006483493861605254
336.158875 0.010673224831996888
337.190491 0.0014672482014997273
347.173431 0.00043633575205297815
348.158142 0.004230348967056651
350.160492 0.0007902046623921354
354.16745 0.0005268031082614235
363.166534 0.0005257261159256088
365.184814 0.02935558009730472
368.146332 0.0023443046029729296
368.19281 0.003034118194062326
380.183044 0.001652567811283864
382.188965 0.0015915638882623528
395.193359 0.0004575678866733276
396.197937 0.00046487604895207105
397.211212 0.11556358547365046
402.156738 0.0007894353821522676
404.176331 0.0004373358163648062
413.205261 0.0016771847789596316
434.180023 0.0025377016552756777
436.195099 0.006859671898900576
448.195435 0.032260459211069265
577.15802 0.0005459581862341301
577.255005 0.008472083281663344
591.270142 0.000575190835349104
594.25415 0.003146125396987068
605.401062 0.0006689660965889806
609.279419 1.0
613.190552 0.0008056671952134768
END IONS

BEGIN IONS
CHARGE=1+
PRECURSORTYPE=M+H
FORMULA=C27H30O14
ONTOLOGY=
INCHIKEY=TWEOMCKJOCRJRY-UHFFFAOYSA-N
INCHI=InChI=1S/C27H30O14/c1-9-19(32)21(34)24(37)27(38-9)41-14-5-3-2-4-10(14)15-7-13(31)17-11(29)6-12(30)18(25(17)39-15)26-23(36)22(35)20(33)16(8-28)40-26/h2-7,9,16,19-24,26-30,32-37H,8H2,1H3/t9-,16+,19-,20+,21+,22-,23+,24+,26-,27?/m0/s1
SMILES=CC1OC(Oc2ccccc2-c2cc(=O)c3c(O)cc(O)c(C4OC(CO)C(O)C(O)C4O)c3o2)C(O)C(O)C1O
IONMODE=positive
INSTRUMENTTYPE=LC-ESI-Orbitrap
INSTRUMENT=Orbitrap
COMMENT=DB#=CCMSLIB00010113782; origin=GNPS
NUM_PEAKS=54
COMPOUND_NAME=CHEMBL1327126
PRECURSOR_MZ=579.171
COLLISION_ENERGY=102040
PARENT_MASS=578.1637235480093
51.473629 0.0011901172662212983
57.033428 0.00124582488293804
64.955597 0.0011955192169332248
66.746918 0.0013778350534607428
71.049362 0.009891984619295836
82.40049 0.0017002639865788534
85.028458 0.01332796289400056
89.000687 0.0013113235353201483
92.380669 0.0017343638004478892
121.027657 0.005007945931875324
129.05484 0.0017215341675070638
136.013245 0.0014109220015712924
142.119995 0.0012377219568701502
159.622375 0.0012778989652901032
190.879501 0.0011128018466568508
194.664536 0.0011766123894414822
217.04924 0.012795533126956308
243.027908 0.008099549848694737
250.490631 0.0012194903732173985
259.059357 0.007129224452064946
261.038605 0.009303509613615348
271.059296 0.03736090398944189
283.05957 0.16406973513222795
284.066528 0.00957799623416511
295.059937 0.04046938900223607
297.074371 0.016748072938489
307.059174 0.0030156389849329466
308.067291 0.0016867591097990374
309.075867 0.006340539648123683
311.054901 0.012349872193222375
313.069977 0.3981207288717047
323.053711 0.005893190604792273
323.091064 0.051574111556359395
325.07019 0.013108846268248042
327.084839 0.005044409099180828
333.073792 0.0015881735093063794
337.069672 0.10153472795945026
341.064636 0.002780991750883641
343.080566 0.0338192500539351
349.069519 0.005711212390184251
351.085968 0.04164397566016058
351.127075 0.0015989774107302323
355.079956 0.012796208370795299
364.458832 0.0013663559081978991
367.080597 0.06722592612224682
369.095978 0.0014554880949446858
373.094025 0.0012778989652901032
379.081268 0.05424402569572905
397.090851 0.13281776215413588
415.101715 0.15035519514040513
433.112152 0.7690558031637199
459.127106 0.006377340437348682
561.159485 0.0019538180481199017
579.169983 1.0
END IONS

BEGIN IONS
CHARGE=1+
PRECURSORTYPE=M+H
FORMULA=C23H21ClFN3O3
ONTOLOGY=
INCHIKEY=SHJQWXKEJJJSGE-UHFFFAOYSA-N
INCHI=InChI=1S/C23H21ClFN3O3/c24-18-12-15(8-9-19(18)25)26-21(29)14-28-20-7-3-2-6-16(20)17(13-22(28)30)23(31)27-10-4-1-5-11-27/h2-3,6-9,12-13H,1,4-5,10-11,14H2,(H,26,29)
SMILES=O=C(c1cc(=O)n(CC(O)=Nc2ccc(F)c(Cl)c2)c2ccccc12)N1CCCCC1
IONMODE=positive
INSTRUMENTTYPE=LC-ESI-Orbitrap
INSTRUMENT=Orbitrap
COMMENT=DB#=CCMSLIB00010112952; origin=GNPS
NUM_PEAKS=31
COMPOUND_NAME=N-(3-chloro-4-fluorophenyl)-2-[2-oxo-4-(piperidylcarbonyl)hydroquinolyl]acetam ide
PRECURSOR_MZ=442.133
COLLISION_ENERGY=102040
PARENT_MASS=441.1257235480092
60.5298 0.0005393720483011525
68.44722 0.0005751710780556537
69.070053 0.003195292886549203
81.030006 0.0006041774713951984
82.065109 0.0006304300932151659
84.080887 0.00299830643051546
92.381813 0.0006401600859176714
98.089752 0.001186875524937696
98.096458 0.02164537848294727
100.106194 0.0005551603383467273
103.691948 0.0004997177384192434
110.811378 0.0006124387859539294
112.075668 0.013507800057829202
121.02681 0.0006028923780193957
130.065292 0.0010367031847367625
156.587601 0.0007018445679561967
158.059906 0.0026494953713690375
169.075714 0.0023944961286562053
186.054901 0.02107241042210728
186.072784 0.0011198670846279885
213.065277 0.0031468265078046474
225.137833 0.012758039865432365
241.132843 0.006176709518411257
254.188095 0.000636855560094179
257.128113 0.05605834323926144
269.128021 0.3125697736858773
277.472595 0.0006065640733788317
297.122925 1.0
310.154053 0.009235966091893356
442.130768 0.002606536535663636
458.652893 0.0006557647911952745
END IONS

BEGIN IONS
CHARGE=1+
PRECURSORTYPE=M+H
FORMULA=C15H21NO4
ONTOLOGY=
INCHIKEY=WKMYCGJILIGPTM-UHFFFAOYSA-N
INCHI=InChI=1S/C15H21NO4/c1-18-12-10-14(20-3)13(19-2)9-11(12)15(17)16-7-5-4-6-8-16/h9-10H,4-8H2,1-3H3
SMILES=COc1cc(OC)c(C(=O)N2CCCCC2)cc1OC
IONMODE=positive
INSTRUMENTTYPE=LC-ESI-Orbitrap
INSTRUMENT=Orbitrap
COMMENT=DB#=CCMSLIB00010104298; origin=GNPS
NUM_PEAKS=21
COMPOUND_NAME="piperidyl 2,4,5-trimethoxyphenyl ketone "
PRECURSOR_MZ=280.154
COLLISION_ENERGY=102040
PARENT_MASS=279.1467235480092
61.231091 0.0008521927248991995
61.42458 0.0006674554611282235
69.070229 0.02584056819397358
83.373207 0.0008063495043474654
84.080971 0.0019112256949068182
95.714104 0.0008058037517218495
107.841019 0.000812898535854856
112.075539 0.056748449516790624
133.905273 0.0009015833375174368
139.075302 0.0012806085360076668
151.039841 0.0012031116631702114
152.047134 0.0014350565290569613
180.041229 0.003917685222983608
188.068375 0.0008527384775248154
195.064957 1.0
198.051895 0.00319647312823222
210.223007 0.0008006191017784986
265.130035 0.0017434067625299345
280.153778 0.9643492554842681
298.734467 0.0008148086700445116
302.712463 0.0008325456303770278
END IONS

BEGIN IONS
CHARGE=1+
PRECURSORTYPE=M+H
FORMULA=C15H8N2O2
ONTOLOGY=
INCHIKEY=VQQVWGVXDIPORV-UHFFFAOYSA-N
INCHI=InChI=1S/C15H8N2O2/c18-13-10-6-2-4-8-12(10)17-14(13)16-11-7-3-1-5-9(11)15(17)19/h1-8H
SMILES=O=C1c2ccccc2-n2c1nc1ccccc1c2=O
IONMODE=positive
INSTRUMENTTYPE=LC-ESI-Orbitrap
INSTRUMENT=Orbitrap
COMMENT=DB#=CCMSLIB00010107771; origin=GNPS
NUM_PEAKS=16
COMPOUND_NAME="Indolo[2,1-b]quinazoline-6,12-dione "
PRECURSOR_MZ=249.066
COLLISION_ENERGY=102040
PARENT_MASS=248.05872354800925
55.979752 0.00019842772118583578
68.215088 0.00021101988666943208
72.515747 0.0001957043620555505
73.953217 0.00021188273312655218
102.034897 0.0004448243125971916
118.656174 0.00023264497600100436
121.028488 0.0018804659974860968
130.028732 0.008463040726999911
130.039139 0.0003523379579746319
146.023438 0.0024283195698537843
206.06131 0.0003583509192226875
211.372131 0.0002492817342523511
221.070862 0.008812439614229978
248.05603 0.0013086414719815419
249.065506 1.0
250.085205 0.0002637344124091126
END IONS

BEGIN IONS
CHARGE=1+
PRECURSORTYPE=M+H
FORMULA=C15H8N2O2
ONTOLOGY=
INCHIKEY=VQQVWGVXDIPORV-UHFFFAOYSA-N
INCHI=InChI=1S/C15H8N2O2/c18-13-10-6-2-4-8-12(10)17-14(13)16-11-7-3-1-5-9(11)15(17)19/h1-8H
SMILES=O=C1c2ccccc2-n2c1nc1ccccc1c2=O
IONMODE=positive
INSTRUMENTTYPE=LC-ESI-Orbitrap
INSTRUMENT=Orbitrap
COMMENT=DB#=CCMSLIB00010107772; origin=GNPS
NUM_PEAKS=11
COMPOUND_NAME="Indolo[2,1-b]quinazoline-6,12-dione "
PRECURSOR_MZ=249.066
COLLISION_ENERGY=102040
PARENT_MASS=248.05872354800925
52.467468 0.0002246760020099884
66.959579 0.0002160578781105474
103.610352 0.0002707905246298043
121.028381 0.0015294901994165832
130.028595 0.007346572636383134
146.023148 0.0025030358097411563
157.987305 0.000363246362603632
206.063232 0.0003610540328397391
221.070572 0.007329789974052643
248.057114 0.0014495079618235254
249.065491 1.0
END IONS

BEGIN IONS
CHARGE=1+
PRECURSORTYPE=M+H
FORMULA=C20H21NO4
ONTOLOGY=
INCHIKEY=XQYZDYMELSJDRZ-UHFFFAOYSA-N
INCHI=InChI=1S/C20H21NO4/c1-22-17-6-5-13(10-18(17)23-2)9-16-15-12-20(25-4)19(24-3)11-14(15)7-8-21-16/h5-8,10-12H,9H2,1-4H3
SMILES=COc1ccc(Cc2nccc3cc(OC)c(OC)cc23)cc1OC
IONMODE=positive
INSTRUMENTTYPE=LC-ESI-Orbitrap
INSTRUMENT=Orbitrap
COMMENT=DB#=CCMSLIB00010103725; origin=GNPS
NUM_PEAKS=53
COMPOUND_NAME=papaverine
PRECURSOR_MZ=340.154
COLLISION_ENERGY=102040
PARENT_MASS=339.1467235480092
64.445648 0.00017451596250292573
72.765297 0.00013991796018394986
73.938263 0.00017249114302878718
81.498894 0.0001491030108419986
83.809258 0.00014153194672130665
85.029701 0.0005998160877013287
95.048927 0.00017900577959775464
104.260048 0.00013968319850578886
116.049789 0.00016131061810637005
121.421806 0.00012013928879888648
123.043808 0.0038751523309839167
142.065216 0.0005605815422386732
147.081177 0.00021715455229891548
148.052094 0.0007198966860806749
151.075562 0.0006504659197645622
159.067261 0.00027167795205180535
161.059372 0.0002065609315719008
170.059998 0.0009670126975548867
171.067749 0.011745948424267879
172.076248 0.0018406195924114696
174.090942 0.00047911923991680985
175.07518 0.0013342386526182149
187.062744 0.003872129774377594
188.070938 0.0007804065086266701
190.086777 0.0002967681064052611
202.086182 0.20520553502303834
203.093857 0.009398478368706832
216.001633 0.00022187913107190539
249.112015 0.00019543909706902393
264.101807 0.0005520127409857972
266.116882 0.00027343866463801274
278.11731 0.00022616353169834346
280.094849 0.00021366247233627075
280.131226 0.0001728726307557988
281.103546 0.0002655448032098495
282.114685 0.00045200426608921554
294.111725 0.0009848252398853518
295.119965 0.0006574794248996218
296.127808 0.018130233571436453
307.118225 0.000534405615123723
308.092316 0.00021110943908627
308.129089 0.0018406195924114696
309.135803 0.00023106418172995412
310.106689 0.01034715031015539
311.114044 0.0005615499341610874
322.101959 0.00016850019450005035
324.12262 0.11861727014894924
325.130188 0.015073900628668297
338.13913 0.00024550202493685497
338.542969 0.0007414654152617158
339.142639 0.0002531904698966274
340.15387 1.0
341.776672 0.0006628202530777843
END IONS

BEGIN IONS
CHARGE=1+
PRECURSORTYPE=M+H
FORMULA=C20H21NO4
ONTOLOGY=
INCHIKEY=XQYZDYMELSJDRZ-UHFFFAOYSA-N
INCHI=InChI=1S/C20H21NO4/c1-22-17-6-5-13(10-18(17)23-2)9-16-15-12-20(25-4)19(24-3)11-14(15)7-8-21-16/h5-8,10-12H,9H2,1-4H3
SMILES=COc1ccc(Cc2nccc3cc(OC)c(OC)cc23)cc1OC
IONMODE=positive
INSTRUMENTTYPE=LC-ESI-Orbitrap
INSTRUMENT=Orbitrap
COMMENT=DB#=CCMSLIB00010103726; origin=GNPS
NUM_PEAKS=55
COMPOUND_NAME=papaverine
PRECURSOR_MZ=340.154
COLLISION_ENERGY=102040
PARENT_MASS=339.1467235480092
58.620468 0.00012414442595274825
60.525421 0.00010736164133171048
64.445808 0.00017882900167967032
91.055496 0.00013519911502529784
93.771652 0.00015353437414078567
94.356888 0.00013787579518814277
95.049217 0.000130086655914264
104.261368 0.00012034354012150843
122.156128 0.00014480839680991117
123.043839 0.0038021438709163495
142.065079 0.0007097485119799639
144.08046 0.000143309455918718
147.079849 0.00019239977010529418
148.051422 0.000679502026139816
151.075516 0.0006988811905188134
158.060486 0.00018945542192616474
159.067322 0.0002636797628418549
170.059799 0.0008786202634538511
171.067581 0.011996639588656358
172.075684 0.0016142790394101539
174.091553 0.0005283231305423339
175.07547 0.0011939867202402418
185.066666 0.00013988330531027648
187.062454 0.0037652592182723463
188.069702 0.0006438218795690931
190.086563 0.0006806797654114678
201.345139 0.00016477643082473442
202.085983 0.19141071001832133
202.831482 0.00021967514096468409
203.09375 0.010200025096553206
230.38884 0.00016300982191725676
243.10997 0.00023841190210459865
264.100677 0.000538628349169287
266.117493 0.00022837435149393015
278.117676 0.00016555266807195945
281.10379 0.0005070970568509736
282.11264 0.0005075520924786572
292.098694 0.00024237338874560918
294.110504 0.0009432888561881847
295.11911 0.0006801176625772704
296.127502 0.018919792529449905
306.116821 0.00013921413526956524
307.119049 0.000792190260995588
308.127899 0.0021523988193485003
309.1362 0.0001839146939890757
310.106567 0.010257386352442974
311.114288 0.0005328467200175419
324.122314 0.12304305236614244
325.12973 0.014293070567567545
325.174255 0.00024518390291659636
338.138062 0.00019620065593653398
338.539978 0.0016123250628912772
339.147766 0.0001637860591644818
340.153564 1.0
341.778473 0.0016336849705907797
END IONS

BEGIN IONS
CHARGE=1+
PRECURSORTYPE=M+H
FORMULA=C16H29N3O6S
ONTOLOGY=
INCHIKEY=HXJDWCWJDCOHDG-UHFFFAOYSA-N
INCHI=InChI=1S/C16H29N3O6S/c1-2-3-4-5-8-26-10-12(15(23)18-9-14(21)22)19-13(20)7-6-11(17)16(24)25/h11-12H,2-10,17H2,1H3,(H,18,23)(H,19,20)(H,21,22)(H,24,25)/t11-,12-/m0/s1
SMILES=CCCCCCSCC(N=C(O)CCC(N)C(=O)O)C(O)=NCC(=O)O
IONMODE=positive
INSTRUMENTTYPE=LC-ESI-Orbitrap
INSTRUMENT=Orbitrap
COMMENT=DB#=CCMSLIB00010112747; origin=GNPS
NUM_PEAKS=49
COMPOUND_NAME=s-hexylglutathione
PRECURSOR_MZ=392.185
COLLISION_ENERGY=102040
PARENT_MASS=391.1777235480092
55.018688 0.002959538002551824
55.37616 0.0019516397385684293
56.050121 0.002817021775720353
57.07058 0.011251680595668853
58.995762 0.013429215899962424
64.803337 0.0020516704579166354
69.068443 0.0022651999249218642
73.937553 0.0023805352218937248
76.022324 0.015967204616448308
76.040367 0.002503828899229886
77.79303 0.0020156740913458
81.070862 0.0026408354781168415
82.379044 0.0026310405484377027
82.384453 0.0022959315167901625
83.086189 0.004540317216143857
84.045082 0.06467383924879745
85.101807 0.01843919999422099
86.990433 0.013645806282492384
100.111938 0.0024492221662686864
101.961723 0.0021579454449352927
102.055 0.0029944324395337566
105.000763 0.003929236040786577
112.039703 0.009194745363049681
116.01683 0.17419339672366949
127.09774 0.00224022285424006
129.065903 0.026193233638090327
130.050049 0.06627677949078854
143.078384 0.0030938509757770165
143.089264 0.035009404969041286
144.01152 0.1751725223817204
145.060577 0.008803315485747091
160.115555 0.46663387813956575
162.021973 0.41003828470701714
189.094543 0.011360894061591253
198.176987 0.002872485565028477
229.509766 0.002361924855503361
246.115814 1.0
263.142273 0.43013539898605335
271.146271 0.0036866890946068995
289.158813 0.0033606403729125626
299.142548 0.005435084042333197
303.037262 0.0026993601829496967
317.152832 0.08397131995615299
328.975891 0.0024337951520240425
329.153931 0.01596806167279523
374.173309 0.012483270566199583
375.155701 0.009177971545974155
392.184753 0.6343851496132655
405.73291 0.0023932686304766054
END IONS

BEGIN IONS
CHARGE=1+
PRECURSORTYPE=M+H
FORMULA=C27H27N3O2
ONTOLOGY=
INCHIKEY=SISSIOUECFLRBO-UHFFFAOYSA-N
INCHI=InChI=1S/C27H27N3O2/c1-18-7-11-20(12-8-18)28-25(31)17-30-16-15-23-22-5-3-4-6-24(22)29-26(23)27(30)19-9-13-21(32-2)14-10-19/h3-14,27,29H,15-17H2,1-2H3,(H,28,31)
SMILES=COc1ccc(C2c3[nH]c4ccccc4c3CCN2CC(=O)Nc2ccc(C)cc2)cc1
IONMODE=positive
INSTRUMENTTYPE=LC-ESI-Orbitrap
INSTRUMENT=Orbitrap
COMMENT=DB#=CCMSLIB00010105468; origin=GNPS
NUM_PEAKS=41
COMPOUND_NAME="2-[1-(4-methoxyphenyl)(1,2,3,4-tetrahydrobeta-carbolin-2-yl)]-N-(4-methylpheny l)acetamide "
PRECURSOR_MZ=426.218
COLLISION_ENERGY=102040
PARENT_MASS=425.21072354800924
60.543362 0.0012139733254162195
67.087593 0.0010755189896544635
73.477707 0.001048755909288145
73.958321 0.001310677255806518
78.331497 0.0010601748235777742
89.111038 0.0013677718272546646
91.054268 0.0017824211523968301
92.821342 0.0012271764450636033
100.06884 0.0010230633521364789
108.080544 0.011286883093155503
120.080833 0.7045074023111882
121.064796 0.08378128782515358
130.064819 0.001769931714892548
133.063995 0.001409165391554571
144.08078 0.0766862167995067
145.06485 0.00902843595130975
146.059784 0.0016029300934067188
148.075516 0.013430427409961861
154.06517 0.001301042546874643
159.09198 0.005894300819878046
171.092072 0.0014655462808596158
177.102234 0.6039092653070546
218.096359 0.007962908511658711
219.104279 0.005609541644780414
230.096695 0.0016507467969945418
231.104233 0.0023294585150843857
234.092865 0.0020029489346152967
235.098495 0.012263200264918811
235.122833 0.0013124614611642726
236.10672 0.12495753591248544
247.100739 0.0024707675794185487
248.106689 0.0023779889008153105
250.122498 1.0
262.122284 0.13942458663530272
264.138397 0.006797822413044967
277.133545 0.01554685180533035
283.143738 0.03678603238404093
291.149048 0.03862947335967296
318.158875 0.001399887523694247
319.143799 0.0028065550277479616
426.217102 0.7166920975403659
END IONS

BEGIN IONS
CHARGE=1+
PRECURSORTYPE=M+H
FORMULA=C19H23N5O2S
ONTOLOGY=
INCHIKEY=LBBHWQWQLGTRIC-UHFFFAOYSA-N
INCHI=InChI=1S/C19H23N5O2S/c1-5-14(17(25)22-13-8-6-12(7-9-13)11(2)3)27-19-23-15-16(24(19)4)20-10-21-18(15)26/h6-11,14H,5H2,1-4H3,(H,22,25)(H,20,21,26)
SMILES=CCC(Sc1nc2c(O)ncnc2n1C)C(=O)Nc1ccc(C(C)C)cc1
IONMODE=positive
INSTRUMENTTYPE=LC-ESI-Orbitrap
INSTRUMENT=Orbitrap
COMMENT=DB#=CCMSLIB00010108664; origin=GNPS
NUM_PEAKS=24
COMPOUND_NAME=N-[4-(methylethyl)phenyl]-2-(9-methyl-6-oxohydropurin-8-ylthio)butanamide
PRECURSOR_MZ=386.165
COLLISION_ENERGY=102040
PARENT_MASS=385.15772354800924
65.326447 0.0009099209084535424
70.078407 0.0007218825588915332
75.471458 0.0006500534485540672
92.368393 0.001162605457319271
102.00528 0.0008421963187067887
104.276497 0.0008552794780896843
107.085274 0.0008960681514598882
120.044067 0.002981164611541758
128.239059 0.0008360395378207202
134.096283 0.0353863546752157
162.091095 0.030194136127964587
176.142761 0.0035501537784292563
176.410843 0.0008486096321297768
180.10289 0.0009509661143606657
181.017868 0.010088655079434017
182.025711 0.01326504095157153
183.033447 0.0126062653967622
195.032959 0.003147910760539447
223.012527 0.0019227113642118127
223.064484 0.3634488849941549
251.059296 1.0
320.605377 0.0008578448034588795
368.152466 0.003063768088429844
386.163635 0.0928773484591758
END IONS

BEGIN IONS
CHARGE=1+
PRECURSORTYPE=M+H
FORMULA=C19H17NO5
ONTOLOGY=
INCHIKEY=VLARYZURBZCEOD-UHFFFAOYSA-N
INCHI=InChI=1S/C19H17NO5/c1-23-16-8-11(9-17(24-2)18(16)25-3)15(21)10-13-12-6-4-5-7-14(12)20-19(13)22/h4-10H,1-3H3,(H,20,22)/b13-10-
SMILES=COc1cc(C(=O)C=C2C(O)=Nc3ccccc32)cc(OC)c1OC
IONMODE=positive
INSTRUMENTTYPE=LC-ESI-Orbitrap
INSTRUMENT=Orbitrap
COMMENT=DB#=CCMSLIB00010109369; origin=GNPS
NUM_PEAKS=61
COMPOUND_NAME="3-[2-oxo-2-(3,4,5-trimethoxyphenyl)ethylidene]-1H-benzo[d]azolidin-2-one "
PRECURSOR_MZ=340.118
COLLISION_ENERGY=102040
PARENT_MASS=339.1107235480092
65.75676 0.0006340084658905181
66.925262 0.0006044894137299189
68.820419 0.0006225047176220493
79.054466 0.0007206121556852175
87.865143 0.0006572330142815779
104.292549 0.0008953388982534706
116.049431 0.04577580193063283
120.044411 0.0051159122016568
124.052277 0.0009465631358262751
132.044846 0.0009713070471961893
136.218796 0.0007499141559916947
139.075424 0.004136357184003973
141.018478 0.0010459728850141757
144.044205 0.01541220100564465
148.418808 0.0007809525711311484
152.046661 0.004058652620228278
156.04187 0.0030712837358270566
157.984207 0.0007905028527125188
158.059891 0.004086869361264144
167.070541 0.004127241006130847
171.45665 0.0008814475795896591
172.039276 1.0
172.624588 0.001185103123506412
185.080536 0.0008315256531415869
195.065231 0.45765448557191213
210.093124 0.0009526405877416927
212.668976 0.0006999922295436225
236.07016 0.006088738611831844
237.077194 0.002886355556115067
238.087189 0.0009398345283484915
243.387436 0.0006748142144654642
247.062637 0.0029035026525907094
248.070679 0.0013244504138527702
250.086121 0.002897425200675292
255.089325 0.001444480089182266
261.079498 0.0014149610370216665
264.066071 0.0028093021479017382
265.073151 0.015048422098136088
266.079803 0.005716060578304278
267.675964 0.000799401978731523
268.098022 0.0013329154361635303
270.112396 0.009001791546003923
275.058472 0.0013181559100832307
278.082031 0.003435713798897984
279.086914 0.0053555374486075474
280.096497 0.051646403429072014
281.102173 0.0007679294598838251
282.07605 0.014965291238007342
283.084473 0.0013986821479625125
289.075714 0.0009491677580757398
292.059814 0.004697653278763603
294.113403 0.0008263164086426576
296.091278 0.005960243914191588
297.098999 0.03130582302373201
298.106934 0.015655733185969595
307.084564 0.00592660087680267
312.12262 0.22767328660351616
322.107239 0.020921628218824734
323.112457 0.0008675562609258477
340.117737 0.4459178406639703
362.123627 0.0007779138451734397
END IONS

BEGIN IONS
CHARGE=1+
PRECURSORTYPE=M+H
FORMULA=C37H50N2O10
ONTOLOGY=
INCHIKEY=XLTANAWLDBYGFU-UHFFFAOYSA-N
INCHI=InChI=1S/C37H50N2O10/c1-7-38-17-34(18-49-32(42)20-10-8-9-11-23(20)39-26(40)14-19(2)31(39)41)13-12-25(46-4)36-22-15-21-24(45-3)16-35(43,27(22)28(21)47-5)37(44,33(36)38)30(48-6)29(34)36/h8-11,19,21-22,24-25,27-30,33,43-44H,7,12-18H2,1-6H3/t19?,21-,22?,24+,25+,27?,28+,29?,30+,33+,34?,35-,36+,37+/m1/s1
SMILES=CCN1CC2(COC(=O)c3ccccc3N3C(=O)CC(C)C3=O)CCC(OC)C34C5CC6C(OC)CC(O)(C5C6OC)C(O)(C(OC)C23)C14
IONMODE=positive
INSTRUMENTTYPE=LC-ESI-Orbitrap
INSTRUMENT=Orbitrap
COMMENT=DB#=CCMSLIB00010104483; origin=GNPS
NUM_PEAKS=307
COMPOUND_NAME=Methyllycaconitine Perchlorate
PRECURSOR_MZ=683.354
COLLISION_ENERGY=102040
PARENT_MASS=682.3467235480093
55.054779 0.00016680059728399
56.049881 0.0010617570251081308
58.06554 0.010636593790275681
58.173531 0.00014384828369077982
59.049541 0.0003265937314589419
67.054619 0.0005890864069368463
69.034073 0.00021465812402538824
69.480148 0.00015352088031014068
70.065399 0.00038897164077382246
71.049423 0.0044643743332571165
72.0811 0.003479630476481759
75.044296 0.018710914438553786
79.054291 0.0008748530500523102
80.049606 0.0025098205574797614
81.070061 0.0006489600097635788
82.065338 0.0003821250046869589
84.080856 0.004494448986403775
85.02845 0.0012705334751797034
85.064796 0.0007430897683135108
86.059982 0.00025557711352439463
87.04409 0.0024953920760618074
88.075623 0.000378655736065763
91.054253 0.002642640702507137
92.928871 0.00014819061328949525
93.057602 0.0005936814647132647
93.069687 0.0009523716747404895
94.064919 0.001056082128754254
95.049088 0.0003291669638137362
96.080597 0.0009356686397232084
97.064857 0.0005772771084514508
98.060143 0.0012096949102199232
98.096413 0.002453232420963168
100.075737 0.0015598612880718917
101.059624 0.0002377253140630089
102.091003 0.0002726937037415534
103.038437 0.00015441691657654228
103.053902 0.00019172878572106013
104.267754 0.0001835725581679174
105.069618 0.001740378132818491
106.065323 0.00017194706199357869
107.049019 0.001017460668143457
107.085083 0.0001960251647420114
108.080612 0.07412108491887334
109.064819 0.0017577244759244704
110.096252 0.0021585743410503346
111.080177 0.00017803551354733313
112.075684 0.0018222620623942678
114.091293 0.0026432150847291894
115.053543 0.00014901772368925057
116.070709 0.00016050536813029672
117.069611 0.0015384712941226637
119.048828 0.0017668456656106612
119.08519 0.0006119697946634101
120.043793 0.0001790234509692631
120.080917 0.00018515785310078175
121.06517 0.0013523484788888341
121.088432 0.003999630189750154
122.096252 0.039631132656009566
123.08007 0.0007254906970298281
123.103943 0.0026949784105805433
124.075172 0.000265893018232454
124.111862 0.00536879658010068
125.059418 0.0002180125162021737
126.091949 0.0005043075909619257
129.069794 0.0019666158024404536
130.086441 0.00024151623672855413
131.085129 0.0017074775191393346
133.064468 0.0003766798612219031
134.096344 0.0011716018812534142
135.080307 0.0016236177147196979
136.075363 0.0014965184166239633
136.111847 0.0009446979282538707
137.059448 0.0017616302750344261
138.091232 0.0028762304645713692
139.075394 0.00019051109541030924
141.069321 0.0014488217169047397
143.085114 0.0013128080067227534
144.101242 0.001117793754691554
145.064758 0.0013712801169276782
145.088287 0.00015623196439822757
145.100662 0.0008889369021370327
146.023712 0.0015715786854017587
146.060135 0.0003828142633534217
146.071884 0.0005706832005422903
146.096146 0.0006408497327882002
147.080185 0.0016339795700055213
148.112061 0.0007979088075861831
149.095749 0.0002612520098782714
150.09082 0.00017617451514788366
150.919586 0.0001710510257271771
151.074905 0.0016623770270637874
153.069672 0.0007040777277917182
154.122406 0.0046868210802135345
155.085403 0.0017297865246438462
157.064835 0.0008938306386689184
157.100616 0.000596737178134583
158.0728 0.0002454909617051561
158.09584 0.0003819412023759022
159.080353 0.001980561802791884
160.075256 0.0005950140314684261
160.111633 0.00221364610850071
161.095596 0.0007293505455620196
162.0905 0.0003819641776647843
162.128464 0.0003512921670071911
163.076004 0.0003226190064823399
164.106384 0.0002525903259697226
165.069702 0.0006986785349044265
167.085419 0.0012124749201746564
169.06398 0.0001760826139923553
169.100418 0.0011438017817060825
170.059937 0.00017523252830371788
171.08049 0.0024994357269050556
172.111862 0.0007812746984355482
173.095856 0.0021936805824621717
174.091003 0.0008289484228658898
174.128845 0.0010807805643025033
175.074905 0.0002502468465037492
175.096558 0.00017626641630341203
175.112579 0.0003526706843401166
175.135132 0.0003354851682563116
176.106232 0.00032009172470530976
176.142776 0.00019165985985441386
178.076462 0.0003742444806004013
179.084976 0.0011843991171607395
180.101288 0.0007636526518629835
181.064392 0.0005915447628472301
181.100845 0.001869889836246845
183.080338 0.0013954271455427572
183.116257 0.0009122568203523564
184.110779 0.0006342328495901576
185.095612 0.0013711422651943857
185.118362 0.0002710854335198069
186.127609 0.0009435951143875302
187.11319 0.0005885120247147939
187.134338 0.00017275119710445191
188.070221 0.021518173085901114
188.105957 0.0006623775784707207
188.143051 0.000582285721427747
189.090195 0.00030598489733170506
190.122375 0.0007365877615598788
191.084549 0.0009252148832818565
192.093643 0.0002665593016100347
193.085114 0.00018120610341306189
193.101349 0.0031060063286811744
195.08136 0.0005397584617069941
195.116409 0.002060400931657154
197.09581 0.0009960017483275827
197.131622 0.0005386786231295358
198.126297 0.0003325213559905217
199.074539 0.0003314415174130633
199.11142 0.00031393434728490903
200.106491 0.0008130265476705997
200.142639 0.0006842500534864725
201.090744 0.0009819638468206244
201.111313 0.0001602526399525937
201.151047 0.00024121755797308693
202.122818 0.0019996312925640203
202.159958 0.00022210211762318616
203.085266 0.0006491438120746355
203.107071 0.00014462944351277096
203.128815 0.001205651259376675
204.091461 0.0003577252478941769
204.138641 0.0011007920409188056
205.100616 0.0015858463397975381
205.120636 0.0002951865115571217
206.108383 0.00028022959849487964
207.079788 0.00025787464241260386
207.116379 0.0020322332274877093
209.096588 0.0010781154307921805
209.131363 0.0010643302574629252
210.127563 0.0003476620713638205
211.076355 0.00017353235692644305
211.112015 0.0012531182062070776
212.140366 0.0002064329706055992
213.091232 0.0002498332913038715
215.105942 0.0003400342754549659
215.128448 0.0002395633371735763
216.065155 0.16689985053196066
217.100372 0.0008258008082890431
217.121414 0.00024266500117265874
219.080154 0.00017537038003701043
219.116394 0.003177298650082307
221.095444 0.0012505449738522832
221.133102 0.002217207278277434
222.102737 0.00024730600952684137
222.126373 0.0002641928468551792
223.111252 0.0019891086102560218
223.1483 0.00020294072669552117
224.14444 0.0003104880539525952
225.129089 0.0012087988739535216
225.148331 0.00017523252830371788
226.121948 0.0006652494895809822
228.136658 0.0010102923780122442
229.099396 0.0002980124720896191
229.144989 0.0003185294050613275
230.153595 0.0006653873413142747
231.118393 0.0012258695135929161
232.132553 0.0002183571455354051
233.09552 0.0002949797339571829
233.131622 0.0009765876292222148
235.111649 0.0007534745988882165
236.141479 0.0002520389190365524
237.126358 0.0021662940381147176
238.160385 0.0002851692856045295
239.104767 0.00025033874765927755
239.143845 0.00031910378728337976
240.135529 0.00048516917532314286
241.123688 0.00021617449309160633
242.113556 0.00020686950109435895
244.132065 0.00019678334927512045
246.148239 0.00025378504099159144
247.110336 0.0023395277162856936
247.137131 0.00025116585805903287
248.14476 0.0005178400361134781
249.126297 0.0020046628808291986
250.129196 0.00015110847497752097
250.158813 0.000644043297942811
251.108429 0.0003413438669212451
251.142517 0.0019325204737394286
252.138092 0.0005327280233090739
253.123108 0.0006212977619495396
253.158508 0.0010748988903486877
255.136383 0.000759792803330792
258.147675 0.0017391144919299756
259.110992 0.0007420558803138167
261.127106 0.0007648473668848523
263.140656 0.0007013206931258671
265.123077 0.0017474774970830573
265.15036 0.0002578976177014859
266.152954 0.00032661670674782395
266.1875 0.0002577827412570755
269.152344 0.0003497298473632088
270.185577 0.0002951865115571217
271.133179 0.00022534163335556116
275.133118 0.000220815501445789
276.138824 0.0005961627959125307
276.173676 0.0023148752313152084
277.123291 0.0003626189844260626
278.154022 0.0011433882265062048
279.138672 0.0020168627592255894
280.167999 0.0010085692313460872
281.152344 0.0006936009960614841
282.15097 0.00022499700402232978
282.184265 0.00028199869573880077
283.133209 0.00030391712133231676
283.170135 0.0005907865783141211
284.163177 0.0009526014276293104
291.136963 0.0006205166021275486
292.167419 0.0003178171711059826
294.149292 0.0004841123120345666
294.185242 0.0026609749830350466
296.162659 0.0003050429104875393
297.147034 0.0006234344638155742
298.178101 0.0002392646584181091
301.836945 0.0002112118306930744
304.168518 0.0017713717975204333
308.162018 0.0005646636748551821
308.199158 0.0030162418750188397
309.148132 0.0005909933559140599
310.179047 0.0008482706408157294
311.164642 0.001064238356307397
312.194336 0.0019579770938207867
316.186005 0.00019058002127695552
322.181213 0.0027654206462930384
324.192047 0.00018837439354427467
326.173706 0.0005037332087398734
326.210693 0.004550646543009373
328.18866 0.0002466856767270249
336.194397 0.005030209747845286
340.18634 0.00037426745588928337
340.226868 0.003318826429595995
342.205078 0.000305961922042823
344.221741 0.0006311541608799572
353.149109 0.003774127729372418
354.205383 0.019882700122118256
358.196716 0.0005744051973411893
358.239899 0.0030376318689680675
368.21994 0.004267039577048826
372.213226 0.0006304419269246124
386.231903 0.01848401048555424
400.245178 0.0014062485066062226
404.236755 0.0005899594679143658
418.257019 0.0015475235579422081
509.239471 0.0003494771191855058
527.252502 0.0009369322806117235
537.242065 0.00033043060470225126
541.271118 0.004294724800151748
545.257202 0.00030276835688821215
555.244263 0.0010287185596956822
559.279602 0.004331692039963034
569.262817 0.004004983432059682
573.191467 0.0002666971533433273
573.295105 0.008322063188293705
577.289612 0.0016228135796088246
587.273621 0.00623321884900052
591.303833 0.004794919814403779
601.290405 0.00924419938286536
605.321289 0.005088360204005861
619.300781 0.015211961744122185
633.317017 0.004252059688697702
651.325867 0.012250630809531546
651.450806 0.0003321537513684082
665.344421 0.0030967702625505733
678.646179 0.00028813309787031937
678.782715 0.0005669841790322735
683.352539 1.0
688.093506 0.0003273978665698151
END IONS

BEGIN IONS
CHARGE=1+
PRECURSORTYPE=M+H
FORMULA=C18H21NO4
ONTOLOGY=
INCHIKEY=JWFHAILNLSSNDW-UHFFFAOYSA-N
INCHI=InChI=1S/C18H21NO4/c1-4-22-16-11-10-13(12-17(16)23-5-2)18(20)19-14-8-6-7-9-15(14)21-3/h6-12H,4-5H2,1-3H3,(H,19,20)
SMILES=CCOc1ccc(C(O)=Nc2ccccc2OC)cc1OCC
IONMODE=positive
INSTRUMENTTYPE=LC-ESI-Orbitrap
INSTRUMENT=Orbitrap
COMMENT=DB#=CCMSLIB00010104678; origin=GNPS
NUM_PEAKS=20
COMPOUND_NAME="(3,4-diethoxyphenyl)-N-(2-methoxyphenyl)carboxamide "
PRECURSOR_MZ=316.154
COLLISION_ENERGY=102040
PARENT_MASS=315.1467235480092
66.741707 0.0004259320822005895
83.165863 0.000468790050067704
104.281013 0.0005238931516111369
109.028229 0.000606134116977762
111.044144 0.0010583766891044952
121.064842 0.0006489920848448765
137.023178 0.06087138687887594
139.075043 0.002936019011066457
139.111771 0.0005189289082288456
150.055435 0.0007443055577848685
165.054413 0.24859623607757259
167.106415 0.0012013468985144834
192.393311 0.0006331065060215445
193.085632 1.0
220.604599 0.0005129718161700961
253.934372 0.0004901362966115563
258.35434 0.0005214110299199913
298.142029 0.0011075226985891786
300.473236 0.0005349799618315873
316.153381 0.13731742547057305
END IONS

BEGIN IONS
CHARGE=1+
PRECURSORTYPE=M+H
FORMULA=C26H27N3O2
ONTOLOGY=
INCHIKEY=RUTWJFHUJLHOGI-UHFFFAOYSA-N
INCHI=InChI=1S/C26H27N3O2/c30-21(18-27-14-16-28(17-15-27)26(31)20-8-2-1-3-9-20)19-29-24-12-6-4-10-22(24)23-11-5-7-13-25(23)29/h1-13,21,30H,14-19H2
SMILES=O=C(c1ccccc1)N1CCN(CC(O)Cn2c3ccccc3c3ccccc32)CC1
IONMODE=positive
INSTRUMENTTYPE=LC-ESI-Orbitrap
INSTRUMENT=Orbitrap
COMMENT=DB#=CCMSLIB00010106668; origin=GNPS
NUM_PEAKS=57
COMPOUND_NAME=4-(3-carbazol-9-yl-2-hydroxypropyl)piperazinyl phenyl ketone
PRECURSOR_MZ=414.218
COLLISION_ENERGY=102040
PARENT_MASS=413.21072354800924
50.015499 0.00042593796777160465
51.023491 0.0011234467896012509
53.03904 0.002521445452514748
56.04987 0.00132257887578212
58.065609 0.0005306711109026606
70.065308 0.001852007895328862
77.038757 0.0017214889356489361
81.033508 0.0013364406153141715
82.065308 0.0020927748837601227
83.060699 0.0010412203418394398
84.063171 0.00028702247052566894
84.068314 0.003418384462450684
84.081047 0.0003275643323828519
85.07579 0.0009209858985865199
87.087044 0.000254628727963312
87.091827 0.004253318271899164
95.049149 0.004381054946941832
97.075897 0.0016781647891544954
99.091682 0.008097640702121453
100.075653 0.0016016022779756732
104.754387 0.00021826029306201553
105.033417 0.3487922698593515
123.0914 0.0005199891252417606
125.107162 0.010159015516403953
139.253448 0.0002495113115769274
141.101929 0.0005291806012755583
143.117493 0.00032045956982699753
148.07547 0.027868853436399756
149.059464 0.0009113969533188284
167.072922 0.0008766183953531077
174.091125 0.03784582804368028
176.106979 0.0003189690601998952
180.080521 0.16277641997871153
182.094666 0.0002684904674953635
191.072327 0.0014365531786012103
191.115402 0.000778244759964355
194.097015 0.000302921239881427
203.117538 0.010180478855034225
204.080429 0.0005001156635470632
206.096146 0.06996422379425721
224.106567 0.0051249683018285965
229.131973 0.0003588650345520005
247.143478 0.018128969227136974
249.138077 0.00043617280054437387
267.147919 0.0027647463073120827
284.106659 0.0010933384951337841
290.162689 0.00024990878081082135
292.180359 0.008658320740183106
308.174469 0.003502697623690438
310.121277 0.0002840911349257011
328.131439 0.0003496238748639662
353.166901 0.000296512048484887
371.174438 0.024791149791050425
396.207733 0.003483718467772002
412.034149 0.0005000162962385897
414.216644 1.0
416.413116 0.0009376796064100658
END IONS

BEGIN IONS
CHARGE=1+
PRECURSORTYPE=M+H
FORMULA=C16H16O4
ONTOLOGY=
INCHIKEY=UOBGWTOQZALQPG-UHFFFAOYSA-N
INCHI=InChI=1S/C16H16O4/c1-10-3-5-12(6-4-10)20-9-16(19)13-7-11(2)14(17)8-15(13)18/h3-8,17-18H,9H2,1-2H3
SMILES=Cc1ccc(OCC(=O)c2cc(C)c(O)cc2O)cc1
IONMODE=positive
INSTRUMENTTYPE=LC-ESI-Orbitrap
INSTRUMENT=Orbitrap
COMMENT=DB#=CCMSLIB00010108408; origin=GNPS
NUM_PEAKS=36
COMPOUND_NAME="1-(2,4-dihydroxy-5-methylphenyl)-2-(4-methylphenoxy)ethan-1-one "
PRECURSOR_MZ=273.112
COLLISION_ENERGY=102040
PARENT_MASS=272.10472354800925
51.141411 0.0017421314223719253
61.304001 0.0018154843243665326
65.039146 0.007649997811244053
66.752029 0.0014522691483609767
67.054657 0.002749550713475283
68.997437 0.0016374260703312356
74.694389 0.0018557101093313172
81.070122 0.010834933491397006
91.05442 0.025649261916001462
93.069962 0.05750749205244969
107.048759 0.0022242492862880946
109.064842 0.11142838213075983
119.049026 0.0064455904849455
119.060013 0.002550788011296347
121.064812 0.46653628779892786
123.043861 0.001707229638358362
125.059708 0.02737364666853598
129.405411 0.0015001851569219702
137.059769 0.9267932122537206
147.044128 0.06049070725211747
148.051788 0.10891249590347704
149.059723 0.041275796263497824
151.038986 0.11639390035126575
163.039032 0.006875059895010701
165.054672 1.0
166.062408 0.08185533151370812
166.07605 0.0028909325165132763
176.260574 0.0016386091816537292
180.689194 0.0018693158895399945
183.064209 0.0020550643671715003
206.081833 0.002322447526055069
227.106537 0.0883133446675398
238.450012 0.002948313415654219
255.10141 0.18110654035770188
273.111847 0.24486914197217557
273.167023 0.008129157896853988
END IONS

BEGIN IONS
CHARGE=1+
PRECURSORTYPE=M+H
FORMULA=C17H14O4
ONTOLOGY=
INCHIKEY=KJRQQECDVUXBCO-UHFFFAOYSA-N
INCHI=InChI=1S/C17H14O4/c1-19-14-9-8-12-13(18)10-15(11-6-4-3-5-7-11)21-16(12)17(14)20-2/h3-10H,1-2H3
SMILES=COc1ccc2c(=O)cc(-c3ccccc3)oc2c1OC
IONMODE=positive
INSTRUMENTTYPE=LC-ESI-Orbitrap
INSTRUMENT=Orbitrap
COMMENT=DB#=CCMSLIB00010103428; origin=GNPS
NUM_PEAKS=33
COMPOUND_NAME="7,8-Dimethoxyflavone "
PRECURSOR_MZ=283.096
COLLISION_ENERGY=102040
PARENT_MASS=282.0887235480092
55.083549 0.00018882710008346102
77.775627 0.00014840750012987678
105.0336 0.0009284369971320291
136.187134 0.00019691911208618058
151.002365 0.0009782028709487544
163.038681 0.0002980692621201751
181.049042 0.0002947110771390465
182.021957 0.00023280718531824184
194.071655 0.0008324252747197615
197.063019 0.00021269853549148372
198.463272 0.00020335226162834262
210.069107 0.00019024320218393693
222.067429 0.0029704966860783243
223.073578 0.0002649729330290521
225.05484 0.00027864843331364814
237.052261 0.0012368640346156852
238.06163 0.0003999476932344144
239.069885 0.061260172265988316
240.075897 0.0011780755674159276
250.061035 0.0021204308251926342
251.069214 0.0034461451515981805
252.078049 0.0007580192243547551
253.049454 0.004487910776828297
254.056854 0.01650458906092686
255.064011 0.0034552891251612536
265.049713 0.0015975654696369099
267.064789 0.059887524269967
268.07254 0.14130542441550992
281.83902 0.00035487518637926645
281.873199 0.0005086234144309382
282.089478 0.000694051869473257
283.095978 1.0
284.326355 0.0005686661434911173
END IONS

BEGIN IONS
CHARGE=1+
PRECURSORTYPE=M+H
FORMULA=C17H14O4
ONTOLOGY=
INCHIKEY=KJRQQECDVUXBCO-UHFFFAOYSA-N
INCHI=InChI=1S/C17H14O4/c1-19-14-9-8-12-13(18)10-15(11-6-4-3-5-7-11)21-16(12)17(14)20-2/h3-10H,1-2H3
SMILES=COc1ccc2c(=O)cc(-c3ccccc3)oc2c1OC
IONMODE=positive
INSTRUMENTTYPE=LC-ESI-Orbitrap
INSTRUMENT=Orbitrap
COMMENT=DB#=CCMSLIB00010103429; origin=GNPS
NUM_PEAKS=34
COMPOUND_NAME="7,8-Dimethoxyflavone "
PRECURSOR_MZ=283.096
COLLISION_ENERGY=102040
PARENT_MASS=282.0887235480092
50.206821 0.000534710054673826
58.376621 0.000492768388325879
60.547958 0.00044269705977833
82.419144 0.000634667946718933
92.396698 0.0004890730873260598
98.984138 0.0059754864817575
109.101044 0.0023354302318856807
111.080437 0.0006873259859663554
137.095657 0.0010749630608473805
151.00238 0.0007841428721616162
153.030457 0.0009757442290022373
155.046799 0.0012584347554883996
155.106918 0.0006562854575678748
211.108246 0.0009916340233014594
219.173996 0.0012416211359392226
222.067795 0.0011433261293440342
225.056625 0.0007930115945611821
237.185013 0.002379958608933501
239.069733 0.056197213779999144
247.168976 0.0035131226605280325
250.062241 0.0012968658858865183
251.070496 0.0035772361328748944
253.048737 0.003973741930155485
254.056808 0.015731450651379944
255.064804 0.002989313743803673
265.048859 0.0007220618153646551
265.179749 0.004173103419095727
267.037933 0.0009888625475515953
267.064667 0.05343941064383414
268.072418 0.1305043586999118
281.865234 0.0010213811963500033
283.095917 1.0
284.334534 0.0009145869974552309
303.014313 0.0006562854575678748
END IONS

BEGIN IONS
CHARGE=1+
PRECURSORTYPE=M+H
FORMULA=C18H18N2O6
ONTOLOGY=
INCHIKEY=QZSPYIDISPEVBP-UHFFFAOYSA-N
INCHI=InChI=1S/C18H18N2O6/c1-9(2)24-18(23)14-13(10-4-3-5-20-7-10)16-15(26-17(14)19)12(22)6-11(8-21)25-16/h3-7,9,13,21H,8,19H2,1-2H3
SMILES=CC(C)OC(=O)C1=C(N)Oc2c(oc(CO)cc2=O)C1c1cccnc1
IONMODE=positive
INSTRUMENTTYPE=LC-ESI-Orbitrap
INSTRUMENT=Orbitrap
COMMENT=DB#=CCMSLIB00010106842; origin=GNPS
NUM_PEAKS=64
COMPOUND_NAME="methylethyl 2-amino-6-(hydroxymethyl)-8-oxo-4-(3-pyridyl)-4H-pyrano[3,2-b]pyra n-3-carboxylate "
PRECURSOR_MZ=359.124
COLLISION_ENERGY=102040
PARENT_MASS=358.11672354800925
50.293789 0.0002677072537143082
67.018059 0.002461174001137886
70.56459 0.0002912724229733023
80.049698 0.0016479157517475262
81.756104 0.0003701984126605951
82.402893 0.0003955829516050263
90.560516 0.00039497649504321395
97.028374 0.0006327074672736546
98.053307 0.00033242483252485456
101.022926 0.0006528938071168371
104.292152 0.0003052209238949863
106.028214 0.0013799485880781556
120.04454 0.0008157707122892964
125.023041 0.001535028194598742
143.059158 0.0006402448559704652
157.039474 0.003609976002513849
159.055161 0.0020438452499593023
169.039413 0.0029328239329245182
169.074982 0.00047537530780919387
171.055161 0.0028337116033940427
175.050583 0.002390218583405841
175.659897 0.0003383161248396031
179.060638 0.00046220653675269714
183.055435 0.0003540839954467241
185.034073 0.010215240963818888
187.049713 0.006830087072434045
197.035812 0.003473090092847633
197.070618 0.013263291643487753
198.054062 0.000781462598221055
199.049606 0.003173500551312333
204.065491 0.0014641594135183845
209.071228 0.00047502876120244397
211.049255 0.0005840176690252917
212.058533 0.0004289380625047055
213.065674 0.0064124984113004
215.044998 0.0013507520364594754
220.023651 0.0015412660335202403
225.065628 0.0090161030678125
226.049835 0.0014339232220794546
232.05983 0.07087683828896425
233.067719 0.0014259526501242067
235.049988 0.00041446974167289654
237.064575 0.000717178202668946
238.033264 0.005175327025203209
241.061798 0.002411444563069273
243.039246 0.0004394210973588903
243.07518 0.0014194549012476459
244.06105 0.0005311693114959299
252.051865 0.00044028746387576515
253.059982 0.051139969394736425
254.04364 0.0033220824089563584
255.07399 0.000512715704686497
256.05899 0.003374151036620533
271.069458 0.008038408453519306
273.08667 0.0019306977828554557
280.082367 0.0004071056262794609
281.054718 0.030046543808386065
282.038635 0.0013860997903479666
298.05899 0.0005402661599231152
299.065399 0.4909232079576804
300.047729 0.0004451391163702639
317.075836 0.14879983545967113
358.117462 0.00032514735378310635
359.122681 1.0
END IONS

BEGIN IONS
CHARGE=1+
PRECURSORTYPE=M+H
FORMULA=C8H10BrN3OS
ONTOLOGY=
INCHIKEY=DWEPCHYENCFQCO-UHFFFAOYSA-N
INCHI=InChI=1S/C8H10BrN3OS/c1-8(2)3-12-5(10)4(9)6(13)11-7(12)14-8/h3,10H2,1-2H3
SMILES=CC1(C)Cn2c(nc(=O)c(Br)c2N)S1
IONMODE=positive
INSTRUMENTTYPE=LC-ESI-Orbitrap
INSTRUMENT=Orbitrap
COMMENT=DB#=CCMSLIB00010105464; origin=GNPS
NUM_PEAKS=41
COMPOUND_NAME="5-amino-6-bromo-2,2-dimethyl-4-hydro-3H-1,3-thiazolidino[3,2-a]pyrimidin-7-one "
PRECURSOR_MZ=275.98
COLLISION_ENERGY=102040
PARENT_MASS=274.97272354800924
55.05476 0.004841860826975589
66.742073 0.0001753288939781651
72.081161 0.001643016734547695
73.954773 0.00018466262853167277
75.997391 0.00018639523793980892
92.378792 0.00019500239435442078
110.083481 0.0017109238452214185
114.037827 0.00023161075442955568
123.952316 0.00018706592545263582
128.00087 0.00017275792517899532
131.063385 0.0011766653506287248
137.070404 0.00020891916024557894
138.078217 0.0007940940151870481
145.924667 0.0008865371107050223
162.94986 0.0015822636240107918
164.081955 0.00035076956920846803
178.926605 0.0008225982344821913
182.03801 0.003831190635771521
185.407532 0.0002379822858014112
187.944229 0.0004565705243569113
189.00177 0.0010500730825826476
196.053452 0.0008230453594907425
197.06131 0.0055793935285809015
197.891373 0.0002460864265814029
199.969955 0.0004922287437888747
204.905945 0.000931752627194769
208.882523 0.0037274017431615583
216.996857 0.009213905051215934
220.925949 0.0008322114221660435
221.93306 0.024010668849829043
226.893433 0.003549110646001741
233.93457 0.001484678590894478
241.992813 0.0004028596327046905
252.872604 0.009827472344200408
258.952942 0.0013024192592837683
259.949615 0.0012032692886375252
270.88327 0.00043058138323486895
274.799652 0.0011087023493289324
275.979767 1.0
277.167389 0.000996306300304358
366.754974 0.0002514519266840181
END IONS

BEGIN IONS
CHARGE=1+
PRECURSORTYPE=M+H
FORMULA=C5H11NO2S
ONTOLOGY=
INCHIKEY=FFEARJCKVFRZRR-BYPYZUCNSA-N
INCHI=InChI=1S/C5H11NO2S/c1-9-3-2-4(6)5(7)8/h4H,2-3,6H2,1H3,(H,7,8)/t4-/m0/s1
SMILES=CSCC[C@H](N)C(=O)O
IONMODE=positive
INSTRUMENTTYPE=LC-ESI-Orbitrap
INSTRUMENT=Orbitrap
COMMENT=DB#=CCMSLIB00010102885; origin=GNPS
NUM_PEAKS=22
COMPOUND_NAME=L-methionine
PRECURSOR_MZ=150.058
COLLISION_ENERGY=102040
PARENT_MASS=149.05072354800924
56.050201 0.8499544762740721
61.011299 0.3616467968107443
61.0186 0.004528262593600052
73.969299 0.00457792680326417
74.0243 0.04231168013574758
74.060699 0.07798118352661643
74.990601 0.005507659969808801
75.026604 0.00390679295651497
84.044998 0.02484692858698191
85.028801 0.029737993187800318
87.026703 0.10801240140756878
93.429802 0.004132245489540825
102.055 0.25536610214237926
104.053001 1.0
104.306 0.005077807687812165
105.000999 0.005256687161068245
105.037003 0.015553657636760155
110.561996 0.0038647442400358326
123.338997 0.0039630911950231905
133.031998 0.6252522984686654
136.240005 0.00550826947360583
150.057999 0.09717053402094655
END IONS

BEGIN IONS
CHARGE=1+
PRECURSORTYPE=M+H
FORMULA=C5H11NO2S
ONTOLOGY=
INCHIKEY=FFEARJCKVFRZRR-BYPYZUCNSA-N
INCHI=InChI=1S/C5H11NO2S/c1-9-3-2-4(6)5(7)8/h4H,2-3,6H2,1H3,(H,7,8)/t4-/m0/s1
SMILES=CSCC[C@H](N)C(=O)O
IONMODE=positive
INSTRUMENTTYPE=LC-ESI-Orbitrap
INSTRUMENT=Orbitrap
COMMENT=DB#=CCMSLIB00010126500; origin=GNPS
NUM_PEAKS=22
COMPOUND_NAME=L-methionine
PRECURSOR_MZ=150.058
COLLISION_ENERGY=102040
PARENT_MASS=149.05072354800924
56.050201 0.8499544762740721
61.011299 0.3616467968107443
61.0186 0.004528262593600052
73.969299 0.00457792680326417
74.0243 0.04231168013574758
74.060699 0.07798118352661643
74.990601 0.005507659969808801
75.026604 0.00390679295651497
84.044998 0.02484692858698191
85.028801 0.029737993187800318
87.026703 0.10801240140756878
93.429802 0.004132245489540825
102.055 0.25536610214237926
104.053001 1.0
104.306 0.005077807687812165
105.000999 0.005256687161068245
105.037003 0.015553657636760155
110.561996 0.0038647442400358326
123.338997 0.0039630911950231905
133.031998 0.6252522984686654
136.240005 0.00550826947360583
150.057999 0.09717053402094655
END IONS

BEGIN IONS
CHARGE=1+
PRECURSORTYPE=M+H
FORMULA=C5H11NO2S
ONTOLOGY=
INCHIKEY=FFEARJCKVFRZRR-BYPYZUCNSA-N
INCHI=InChI=1S/C5H11NO2S/c1-9-3-2-4(6)5(7)8/h4H,2-3,6H2,1H3,(H,7,8)/t4-/m0/s1
SMILES=CSCC[C@H](N)C(=O)O
IONMODE=positive
INSTRUMENTTYPE=LC-ESI-Orbitrap
INSTRUMENT=Orbitrap
COMMENT=DB#=CCMSLIB00010126539; origin=GNPS
NUM_PEAKS=24
COMPOUND_NAME=L-methionine
PRECURSOR_MZ=150.058
COLLISION_ENERGY=102040
PARENT_MASS=149.05072354800924
55.2229 0.013090801894640219
56.050301 0.8472670424393672
56.334499 0.013810506905899059
61.011398 0.29136152502760926
61.391701 0.014973753488805702
64.039001 0.01509795976937309
73.963402 0.017128494184128623
74.024399 0.03455179684609096
74.060699 0.06021176684164479
84.044998 0.015565811052306986
85.0289 0.029924414067094073
87.026901 0.09018759810249129
92.385597 0.015546878010125784
102.056 0.2663669146551353
104.053001 1.0
104.255997 0.013410854137085324
133.020996 0.02745213263915781
133.031998 0.6584520172683332
135.104004 0.07654002405949256
150.026993 0.07696312690934125
150.057999 0.12740774206502875
150.076004 0.059000689557247965
150.113998 0.024673779900463263
150.128006 0.2333763635457453
END IONS

BEGIN IONS
CHARGE=1+
PRECURSORTYPE=M+H
FORMULA=C21H21NO3
ONTOLOGY=
INCHIKEY=WRKNCGBLJWHTCH-UHFFFAOYSA-N
INCHI=InChI=1S/C21H21NO3/c23-19-10-9-16-20(24)18(15-7-3-1-4-8-15)14-25-21(16)17(19)13-22-11-5-2-6-12-22/h1,3-4,7-10,14,23H,2,5-6,11-13H2
SMILES=O=c1c(-c2ccccc2)coc2c(CN3CCCCC3)c(O)ccc12
IONMODE=positive
INSTRUMENTTYPE=LC-ESI-Orbitrap
INSTRUMENT=Orbitrap
COMMENT=DB#=CCMSLIB00010103461; origin=GNPS
NUM_PEAKS=28
COMPOUND_NAME=7-hydroxy-3-phenyl-8-(piperidylmethyl)chromen-4-one
PRECURSOR_MZ=336.159
COLLISION_ENERGY=102040
PARENT_MASS=335.1517235480092
63.419029 0.00017423561534645122
63.841949 0.00014699486144977226
66.738289 0.00014634085587605242
69.070267 0.004271793797388391
72.241364 0.00037096333542387637
84.081039 0.011407819222395334
85.889641 0.0002333662497182089
86.096657 0.4708122430753321
86.364357 0.00016341608835512936
92.372131 0.00026733188701422454
104.282516 0.00018541058014957733
110.5009 0.00015096154742950786
118.645683 0.00019843382157408565
121.221291 0.00013809469864219342
130.446899 0.00016020293053641878
149.023071 0.006692453253387692
167.034119 0.002219751787255058
195.080566 0.0009012481156108969
212.291428 0.0003044964646164786
223.052948 0.00018403148143977677
223.07547 0.006393316790973221
251.069977 0.42466313594648936
253.084839 0.0009616441085926778
334.566528 0.00032472798486437747
335.153351 0.000636048855467498
336.158936 1.0
337.763519 0.00033291727204834773
352.948029 0.00045706459095534176
END IONS

BEGIN IONS
CHARGE=1+
PRECURSORTYPE=M+H
FORMULA=C19H20O3
ONTOLOGY=
INCHIKEY=GVKKJJOMQCNPGB-UHFFFAOYSA-N
INCHI=InChI=1S/C19H20O3/c1-10-9-22-18-12-6-7-13-11(5-4-8-19(13,2)3)15(12)17(21)16(20)14(10)18/h6-7,10H,4-5,8-9H2,1-3H3/t10-/m0/s1
SMILES=CC1COC2=C1C(=O)C(=O)c1c2ccc2c1CCCC2(C)C
IONMODE=positive
INSTRUMENTTYPE=LC-ESI-Orbitrap
INSTRUMENT=Orbitrap
COMMENT=DB#=CCMSLIB00010107310; origin=GNPS
NUM_PEAKS=37
COMPOUND_NAME=Cryptotanshinone
PRECURSOR_MZ=297.149
COLLISION_ENERGY=102040
PARENT_MASS=296.1417235480092
52.612709 0.0004193126486905674
59.027779 0.00040772942635104893
68.106873 0.0004094669097019767
81.069962 0.0006676279775939939
95.085289 0.000637511599511246
104.289146 0.000643737581518737
116.250267 0.00038760357753613565
118.656914 0.0005373167262744114
185.095627 0.0005351448720857518
197.095535 0.002014611945400744
209.095825 0.0037161873070760023
223.112228 0.0005176252482972301
223.147446 0.0018582384438172452
227.069351 0.0026353278725196883
229.087234 0.0006490948218507643
236.083954 0.0004906942563578497
236.117767 0.000851946003071581
237.090637 0.007228799481534968
237.126083 0.002453036910951517
241.085327 0.0016794224489509292
250.097229 0.002052112627724935
251.142517 0.054785021908941106
254.093338 0.03449150595066329
255.101135 0.005103857343350311
261.126678 0.0022249922211422476
263.106171 0.00047056840754293645
264.113831 0.004292886989304776
268.108582 0.01709278204531038
269.118744 0.0006696550415034096
269.152771 0.002541214191011101
279.137329 0.05816963947654839
279.229889 0.003533606764949343
282.124023 0.022358804501413948
295.82962 0.0006327335202961946
297.147919 1.0
298.47522 0.0006821070055183919
329.962311 0.0004362531113621131
END IONS

BEGIN IONS
CHARGE=1+
PRECURSORTYPE=M+H
FORMULA=C15H10O6
ONTOLOGY=
INCHIKEY=IYRMWMYZSQPJKC-UHFFFAOYSA-N
INCHI=InChI=1S/C15H10O6/c16-8-3-1-7(2-4-8)15-14(20)13(19)12-10(18)5-9(17)6-11(12)21-15/h1-6,16-18,20H
SMILES=O=c1c(O)c(-c2ccc(O)cc2)oc2cc(O)cc(O)c12
IONMODE=positive
INSTRUMENTTYPE=LC-ESI-Orbitrap
INSTRUMENT=Orbitrap
COMMENT=DB#=CCMSLIB00010106027; origin=GNPS
NUM_PEAKS=41
COMPOUND_NAME=kaempferol
PRECURSOR_MZ=287.055
COLLISION_ENERGY=102040
PARENT_MASS=286.04772354800923
52.13084 0.0001783988762940386
68.997581 0.00028079196683519357
73.960716 0.00023055260811085732
82.406883 0.00019340342215403604
92.386787 0.0002184454917962387
105.033623 0.00043409703367371924
107.049004 0.00039555087275751886
110.901176 0.00020028481732431072
111.007607 0.0024252002692953805
121.028526 0.007063829752006936
127.039291 0.0002913986285638125
133.028427 0.002131214650066051
135.043533 0.00022848301557844386
137.023331 0.00198634317279711
141.070084 0.00021673807795699758
145.063828 0.00028508637133995145
147.043503 0.001383470868105075
153.018188 0.008920771651714895
157.063843 0.00027629060307719436
165.018127 0.007590696270946088
169.066452 0.0002163241594505149
175.03981 0.0002293625924047196
183.028885 0.0041754546739574275
185.060059 0.00117175155203918
189.053207 0.0007671979517656625
197.058884 0.00042136903959937656
203.035751 0.00027810149654305613
203.068283 0.00020845970782734383
213.054199 0.004331036292581607
231.064896 0.0030006504729329377
241.005203 0.00023805488104085604
241.048935 0.004089411364422338
258.052094 0.003611749407941316
259.059692 0.0020703168897997855
263.055206 0.0002532146463407845
269.043274 0.001252000002483511
270.051544 0.0003777523769787633
285.793854 0.0013410442211905993
286.047699 0.00031519894268656703
287.05484 1.0
288.320038 0.0014610288482572685
END IONS

BEGIN IONS
CHARGE=1+
PRECURSORTYPE=M+H
FORMULA=C15H10O6
ONTOLOGY=
INCHIKEY=IYRMWMYZSQPJKC-UHFFFAOYSA-N
INCHI=InChI=1S/C15H10O6/c16-8-3-1-7(2-4-8)15-14(20)13(19)12-10(18)5-9(17)6-11(12)21-15/h1-6,16-18,20H
SMILES=O=c1c(O)c(-c2ccc(O)cc2)oc2cc(O)cc(O)c12
IONMODE=positive
INSTRUMENTTYPE=LC-ESI-Orbitrap
INSTRUMENT=Orbitrap
COMMENT=DB#=CCMSLIB00010106029; origin=GNPS
NUM_PEAKS=36
COMPOUND_NAME=kaempferol
PRECURSOR_MZ=287.055
COLLISION_ENERGY=102040
PARENT_MASS=286.04772354800923
59.66787 0.00023653237059808685
66.736763 0.0003271546145179163
68.997597 0.00035874769037987515
73.946663 0.0002596451997813094
82.3908 0.00033555172152333165
85.893158 0.00025723414925500203
87.709908 0.00025764984762160673
104.275307 0.00037687213916384103
106.809097 0.000270702776332995
111.007477 0.0021594698748382104
121.028481 0.0068469677963463775
127.038071 0.00038443784943604695
129.08699 0.0003276534525578419
131.302216 0.0002714510333928835
133.028305 0.0020901313872885427
137.023026 0.0006386789704514949
138.302231 0.0002201538549538608
145.06427 0.00037205003811122627
147.043808 0.0011841583671102112
153.018265 0.00794673939503583
165.018143 0.007234980651735225
183.028564 0.003234881549244626
185.060669 0.00045984553313814356
201.515472 0.0003088638863873085
203.071899 0.00028392198439102515
210.928406 0.0004847042954611059
213.053635 0.0043667450618359634
231.064606 0.0029097222868864126
241.049316 0.002994192194980492
245.931122 0.000647658055170157
258.051361 0.002859505924200562
259.059326 0.0017475959332062516
263.940979 0.0011661170579995662
269.043396 0.0010074865613032044
270.050293 0.0003528447735740881
287.054871 1.0
END IONS

BEGIN IONS
CHARGE=1+
PRECURSORTYPE=M+H
FORMULA=C15H10O6
ONTOLOGY=
INCHIKEY=IYRMWMYZSQPJKC-UHFFFAOYSA-N
INCHI=InChI=1S/C15H10O6/c16-8-3-1-7(2-4-8)15-14(20)13(19)12-10(18)5-9(17)6-11(12)21-15/h1-6,16-18,20H
SMILES=O=c1c(O)c(-c2ccc(O)cc2)oc2cc(O)cc(O)c12
IONMODE=positive
INSTRUMENTTYPE=LC-ESI-Orbitrap
INSTRUMENT=Orbitrap
COMMENT=DB#=CCMSLIB00010106030; origin=GNPS
NUM_PEAKS=13
COMPOUND_NAME=kaempferol
PRECURSOR_MZ=287.055
COLLISION_ENERGY=102040
PARENT_MASS=286.04772354800923
51.119709 0.002226981734636617
60.614182 0.002489440443907775
79.726112 0.0021995606754590335
84.178993 0.002206415940253429
121.02832 0.004722298119796731
143.957352 0.0024424329138890604
153.01825 0.004499991675749893
157.383514 0.002532530679758264
165.018372 0.00330227898381472
183.029221 0.002835141654253741
231.066513 0.0028821491842724554
263.904266 0.010306400956603236
287.054321 1.0
END IONS

BEGIN IONS
CHARGE=1+
PRECURSORTYPE=M+H
FORMULA=C31H38O11
ONTOLOGY=
INCHIKEY=OVMSOCFBDVBLFW-UHFFFAOYSA-N
INCHI=InChI=1S/C31H38O11/c1-15-19(34)13-31(38)26(41-27(37)18-10-8-7-9-11-18)24-29(6,20(35)12-21-30(24,14-39-21)42-17(3)33)25(36)23(40-16(2)32)22(15)28(31,4)5/h7-11,19-21,23-24,26,34-35,38H,12-14H2,1-6H3/t19-,20-,21+,23+,24-,26-,29+,30-,31+/m0/s1
SMILES=CC(=O)OC1C(=O)C2(C)C(O)CC3OCC3(OC(C)=O)C2C(OC(=O)c2ccccc2)C2(O)CC(O)C(C)=C1C2(C)C
IONMODE=positive
INSTRUMENTTYPE=LC-ESI-Orbitrap
INSTRUMENT=Orbitrap
COMMENT=DB#=CCMSLIB00010112710; origin=GNPS
NUM_PEAKS=149
COMPOUND_NAME=Baccatin III
PRECURSOR_MZ=587.249
COLLISION_ENERGY=102040
PARENT_MASS=586.2417235480093
53.039059 0.024074892282546948
67.054749 0.022912174978988037
81.033798 0.014763187705759438
81.069977 0.014175184955102503
83.049477 0.0513090535813354
85.028481 0.018364289297353325
91.054237 0.017178317647723235
92.373642 0.01249090588966145
93.069923 0.08841966786149712
95.049171 0.02224112099236261
95.085548 0.05936834551971802
105.033363 0.7998332331181752
105.06971 0.13732355764918494
107.085457 0.0700885990585312
109.064667 0.09217358372727302
109.100571 0.013852946159544747
111.044289 0.010879711911872673
111.080383 0.04224318066301463
117.06987 0.011497613107478266
119.04937 0.02472601397253994
119.0858 0.05240865194555826
121.064438 0.10181084914905704
121.100769 0.07834389191379947
123.04406 0.04932911211584651
123.08017 0.1587341662818626
125.059563 0.022114883113690496
131.085464 0.047103338991890877
133.053238 0.01841079798949568
133.064651 0.5559815161169228
133.101044 0.15210999970101555
135.080215 0.06902886528757321
136.207489 0.011926157485075693
137.059692 0.04310691351708696
137.085876 0.009427976307143402
137.09523 0.07982552596347739
139.026138 0.009524315740866856
139.075043 0.040200120258189684
141.091141 0.025925273819924988
143.085281 0.039804796374979655
145.065018 0.018693172191788558
145.101135 0.046226317940063585
147.080658 0.06936107023144718
149.059586 0.08027732468714599
149.09613 0.08211774007620781
151.075211 0.08897445011776665
151.111984 0.04028649354359692
155.08577 0.01314202757965444
157.100845 0.04450217428135766
159.080353 0.10158494978722274
159.11734 0.01590265066324717
161.059937 0.0652251186802162
161.095703 0.09919639624076886
163.075317 0.059238785591607175
165.055069 0.01472996721137204
165.090576 0.0678163172424332
167.069672 0.019706397270604182
167.106979 0.023201193280158395
168.092575 0.01222181988512353
169.100754 0.01983927924815377
171.080261 0.015185087984479385
173.059387 0.010816592972536617
173.096313 0.051006747082410084
175.074448 0.024789132911875993
177.054565 0.015540547274424539
177.090958 0.08369903560904793
179.069763 0.024762556516366076
179.107132 0.0974523202854305
181.102249 0.010766762230955521
183.116699 0.05643497586531083
185.095718 0.04197409465847671
185.131012 0.010534218770243738
187.075912 0.022128171311445458
187.111359 0.04180134808766224
189.090469 0.023211159428474615
189.127441 0.01642421242512931
191.069199 0.010607303857896013
193.10173 0.01710191051063222
195.065247 0.055471581528076304
195.099289 0.014025692730359213
195.117203 0.0467379135536295
197.09613 0.022141459509200417
197.131607 0.020942199661815368
199.111526 0.024486826412950677
201.090652 0.016214923310488707
201.12706 0.018467272829954254
203.069061 0.010743507884884342
205.0849 0.011288323992837662
207.099136 0.09349243735445271
208.124924 0.015234918726060481
209.096359 0.019237988299741878
211.112045 0.08060620758158123
211.147827 0.02431407984213621
213.08989 0.011882970842372076
213.126862 0.02533727106926805
215.106796 0.018477238978270475
215.143143 0.0436783060205502
217.123764 0.01817493247934516
220.124222 0.020845860228091914
221.131958 0.05159474983306701
223.111633 0.0518106830465851
225.09079 0.03877496104897033
225.126724 0.045249635405074096
225.164871 0.018836020317654367
227.105988 0.025968460462628604
229.122498 0.040954225480783604
235.147598 0.05824881485886273
237.127106 0.020327620515648515
239.105835 0.05436533906497597
239.1436 0.07162006384979021
241.122375 0.04336271132386992
243.137405 0.03960215135921653
248.120621 0.02195874679006973
249.127579 0.02524425368498334
251.105026 0.016527195957730244
253.126144 0.016327872991405857
253.158463 0.08462920945189506
255.136658 0.017038791571296164
257.117798 0.016653433836402352
257.152313 0.05403977821997947
263.143433 0.08837980326823223
265.120911 0.015802989180084978
267.104675 0.011773343210893664
267.137848 0.05750135373514629
269.116241 0.044641700357784725
269.150635 0.013062298393124687
271.136566 0.014985765018155
271.168121 0.038479298648922494
281.153656 0.24555260631388717
283.13324 0.021925526295682334
285.115631 0.01368019958873028
285.147186 0.0815563137210608
291.137451 0.07379932828160349
297.147217 0.01368684368760776
299.162903 0.1868818911763045
303.158356 0.0386221467747883
309.147675 0.3489082084519582
315.160278 0.01907520787724363
317.174316 0.06644431082423369
327.158234 0.6809105073101698
345.169067 0.5097120115341557
363.179626 0.021367421989974055
369.170197 0.08424385171700126
387.17926 0.2506419860540365
405.189636 1.0
449.194275 0.06295615891355695
509.219696 0.07233098242968052
569.240845 0.01890910540530664
587.247803 0.4057285420521628
602.874939 0.011258425547889004
END IONS

BEGIN IONS
CHARGE=1+
PRECURSORTYPE=M+H
FORMULA=C19H21NO5
ONTOLOGY=
INCHIKEY=UOGFWBMGLSZZBQ-UHFFFAOYSA-N
INCHI=InChI=1S/C19H21NO5/c1-12(8-13-4-6-15(22-2)17(9-13)23-3)20-19(21)14-5-7-16-18(10-14)25-11-24-16/h4-7,9-10,12H,8,11H2,1-3H3,(H,20,21)
SMILES=COc1ccc(CC(C)N=C(O)c2ccc3c(c2)OCO3)cc1OC
IONMODE=positive
INSTRUMENTTYPE=LC-ESI-Orbitrap
INSTRUMENT=Orbitrap
COMMENT=DB#=CCMSLIB00010104638; origin=GNPS
NUM_PEAKS=47
COMPOUND_NAME="2H-benzo[3,4-d]1,3-dioxolen-5-yl-N-[2-(3,4-dimethoxyphenyl)-isopropyl]carboxam ide "
PRECURSOR_MZ=344.149
COLLISION_ENERGY=102040
PARENT_MASS=343.1417235480092
50.671181 0.0007107996776215635
50.743851 0.0007327393212142921
53.64011 0.0006084892988269007
66.071716 0.0006033401988000358
66.510918 0.0006595325512671263
68.997513 0.0006458762425002239
91.054367 0.0027249932837825736
95.012741 0.0007752753649144802
95.346809 0.0006861735470582968
119.085533 0.0015357750514910003
121.064102 0.0010065371182949763
123.044197 0.0008464672696337423
136.051514 0.005923032148294081
138.067215 0.006581893077818573
139.075912 0.0011207128145428495
147.080399 0.006030267753201397
148.088593 0.0013622727679770753
148.554016 0.0008778096176233545
149.023315 1.0
151.075195 0.061403241694277785
159.064377 0.000913181696068774
164.083054 0.00938994358377362
166.049698 0.0072658278857347545
179.106567 0.414370242679323
194.116745 0.0010667592012178742
216.101746 0.001161233993015134
235.745468 0.0007219933733321394
264.631592 0.0009850452225306707
286.644318 0.0008478105131190114
298.082458 0.0011554132712456346
299.653351 0.004755753559595236
300.153656 0.0016882331870690427
309.914032 0.0006711739948061252
313.159607 0.0010600429837915287
321.665375 0.00870488940628638
322.168793 0.001371675472373959
326.137054 0.003123264977164861
327.121521 0.008726829049879108
343.678955 0.04878212590668935
343.72644 0.001657562460822065
344.147827 0.3373215724903734
344.825104 0.0007394555386406376
424.87851 0.0008068415868183039
486.126404 0.0007049789558520642
488.16629 0.0007076654428226023
513.489868 0.0007649771648607504
600.601868 0.0007750514910002687
END IONS

BEGIN IONS
CHARGE=1+
PRECURSORTYPE=M+H
FORMULA=C9H10N2O4
ONTOLOGY=
INCHIKEY=GTVVZTAFGPQSPC-UHFFFAOYSA-N
INCHI=InChI=1S/C9H10N2O4/c10-8(9(12)13)5-6-1-3-7(4-2-6)11(14)15/h1-4,8H,5,10H2,(H,12,13)
SMILES=NC(Cc1ccc([N+](=O)[O-])cc1)C(=O)O
IONMODE=positive
INSTRUMENTTYPE=LC-ESI-Orbitrap
INSTRUMENT=Orbitrap
COMMENT=DB#=CCMSLIB00010113622; origin=GNPS
NUM_PEAKS=27
COMPOUND_NAME=4-Nitro-DL-phenylalanine
PRECURSOR_MZ=211.071
COLLISION_ENERGY=102040
PARENT_MASS=210.06372354800925
59.37104 0.0004025408301545637
65.039032 0.0021892294952415388
75.685661 0.000403486501642789
79.656258 0.00039135038421056446
91.054176 0.0036611671666641975
92.049568 0.02811654707599952
92.375488 0.0006966446629926279
94.064957 0.0009199807461284997
117.057159 0.0018323961203511971
118.065308 0.002514855711020446
119.060417 0.0073086220967491285
119.072952 0.021468161289946344
120.04435 0.0770772698716314
130.041138 0.0010301514745067457
131.060928 0.0005377718529707797
134.023438 0.0020273620588403102
138.054672 0.0038075886354244125
147.055161 0.0023058623121226572
148.039276 0.00241666348815972
148.063034 0.002543698691411317
151.062683 0.014575949871845751
152.034134 0.0008646589640673205
164.298737 0.0004250793339572664
165.065826 1.0
176.034943 0.0006904977983191635
194.044601 0.015073057850822845
211.071106 0.09819505987519028
END IONS

BEGIN IONS
CHARGE=1+
PRECURSORTYPE=M+H
FORMULA=C23H23N5O2S
ONTOLOGY=
INCHIKEY=DKRHILRFORRVNP-UHFFFAOYSA-N
INCHI=InChI=1S/C23H23N5O2S/c1-4-16-7-5-6-15(3)19(16)26-18(29)12-31-23-27-20-21(24-13-25-22(20)30)28(23)17-10-8-14(2)9-11-17/h5-11,13H,4,12H2,1-3H3,(H,26,29)(H,24,25,30)
SMILES=CCc1cccc(C)c1N=C(O)CSc1nc2c(O)ncnc2n1-c1ccc(C)cc1
IONMODE=positive
INSTRUMENTTYPE=LC-ESI-Orbitrap
INSTRUMENT=Orbitrap
COMMENT=DB#=CCMSLIB00010112827; origin=GNPS
NUM_PEAKS=31
COMPOUND_NAME=N-(6-ethyl-2-methylphenyl)-2-[9-(4-methylphenyl)-6-oxohydropurin-8-ylthio]acet amide
PRECURSOR_MZ=434.165
COLLISION_ENERGY=102040
PARENT_MASS=433.15772354800924
62.533699 0.0005114456533583895
70.672813 0.0004865953721052571
72.970047 0.0005633290108395919
80.574417 0.0006504729025313202
81.417824 0.0005418368757017476
92.360863 0.000542004783007512
93.653053 0.0006541668632581371
105.850014 0.0005255498670426
109.288986 0.0005315945300501186
121.374603 0.0005690378592355819
128.623108 0.0005959030281578873
143.072205 0.0006654166527443525
144.080139 0.00421850315002501
155.563034 0.0005436838560651561
158.095932 0.007199025734649033
199.137405 0.000599093266967411
212.081512 0.01000190238977431
213.089584 0.004007611573984912
217.393188 0.0007080651084085124
230.038177 0.00744265923531319
238.084229 0.000726367004736833
244.053421 0.08384014754350771
256.042236 0.0007312363166040008
257.048584 0.02547892620591447
257.079407 0.0008558235374811923
259.065735 0.0006348575230952302
262.064636 0.005716404224749302
271.064209 0.31008768623228933
299.059143 1.0
416.153412 0.007805842737681606
434.163513 0.3039001341075651
END IONS

BEGIN IONS
CHARGE=1+
PRECURSORTYPE=M+H
FORMULA=C20H11ClF4N4O4
ONTOLOGY=
INCHIKEY=DFUUOIAMSLOLPI-UHFFFAOYSA-N
INCHI=InChI=1S/C20H11ClF4N4O4/c21-10-3-1-2-9(8-10)15(30)28-19(20(23,24)25)13-14(26-17(19)32)29(18(33)27-16(13)31)12-6-4-11(22)5-7-12/h1-8H,(H,26,32)(H,28,30)(H,27,31,33)
SMILES=O=c1nc(O)c2c(n1-c1ccc(F)cc1)N=C(O)C2(N=C(O)c1cccc(Cl)c1)C(F)(F)F
IONMODE=positive
INSTRUMENTTYPE=LC-ESI-Orbitrap
INSTRUMENT=Orbitrap
COMMENT=DB#=CCMSLIB00010111994; origin=GNPS
NUM_PEAKS=32
COMPOUND_NAME="(3-chlorophenyl)-N-[7-(4-fluorophenyl)-2,4,6-trioxo-3-(trifluoromethyl)(3,5,7- trihydro-5,7-diazaindol-3-yl)]carboxamide "
PRECURSOR_MZ=483.048
COLLISION_ENERGY=102040
PARENT_MASS=482.0407235480092
50.9543 0.0008223938176994615
51.02124 0.0008148556129837065
51.02335 0.00671994475225447
60.741402 0.0008576531623376702
69.944847 0.0007671947057486106
75.023247 0.0015292828857220323
79.018059 0.001262527705941929
86.999771 0.01765715029113276
101.810661 0.000892912506975879
110.999901 0.0039585301473475856
113.015198 0.00367183520025484
114.994766 0.0009751032551670138
118.652893 0.00091795880006371
129.009918 0.00888170733041775
138.994507 1.0
156.020981 0.18733581607753166
157.005142 0.001146779788370982
189.045517 0.0013714669224792913
209.787613 0.0015929928739648648
233.035995 0.0017454591435383604
237.026749 0.0407306222544825
243.021637 0.004964272557165732
261.030365 0.21995946391206075
263.028625 0.004358298165176655
265.021637 0.057304216409698995
276.379059 0.0008882923169888033
285.027252 0.016165558428989504
323.133606 0.0008814836159552182
328.033478 0.6584918484042714
364.144775 0.000892912506975879
429.928619 0.0010862309827508855
483.047424 0.8032443460425033
END IONS

BEGIN IONS
CHARGE=1+
PRECURSORTYPE=M+H
FORMULA=C15H10O3
ONTOLOGY=
INCHIKEY=IYBLVRRCNVHZQJ-UHFFFAOYSA-N
INCHI=InChI=1S/C15H10O3/c16-11-7-4-8-13-15(11)12(17)9-14(18-13)10-5-2-1-3-6-10/h1-9,16H
SMILES=O=c1cc(-c2ccccc2)oc2cccc(O)c12
IONMODE=positive
INSTRUMENTTYPE=LC-ESI-Orbitrap
INSTRUMENT=Orbitrap
COMMENT=DB#=CCMSLIB00010104961; origin=GNPS
NUM_PEAKS=18
COMPOUND_NAME=5-Hydroxyflavone
PRECURSOR_MZ=239.07
COLLISION_ENERGY=102040
PARENT_MASS=238.06272354800925
55.356609 0.00020618391486496252
58.192989 0.0002677645731369736
79.021652 0.000435219447498334
92.37513 0.00037438072486815433
97.173912 0.0002392742444906456
104.28196 0.00025314844099289386
136.203232 0.00025181295683759724
137.023712 0.0034183942761742653
155.033524 0.00029232264288159493
186.043625 0.000522693659670263
186.545898 0.00027102908996103206
187.039993 0.000293880707729441
206.528015 0.0005396097923040203
215.920151 0.0004106613777537127
238.06221 0.0011166131409563462
238.115158 0.001166397022523237
239.070114 1.0
240.030762 0.001068684098494034
END IONS

BEGIN IONS
CHARGE=1+
PRECURSORTYPE=M+H
FORMULA=C15H10O3
ONTOLOGY=
INCHIKEY=IYBLVRRCNVHZQJ-UHFFFAOYSA-N
INCHI=InChI=1S/C15H10O3/c16-11-7-4-8-13-15(11)12(17)9-14(18-13)10-5-2-1-3-6-10/h1-9,16H
SMILES=O=c1cc(-c2ccccc2)oc2cccc(O)c12
IONMODE=positive
INSTRUMENTTYPE=LC-ESI-Orbitrap
INSTRUMENT=Orbitrap
COMMENT=DB#=CCMSLIB00010104962; origin=GNPS
NUM_PEAKS=13
COMPOUND_NAME=5-Hydroxyflavone
PRECURSOR_MZ=239.07
COLLISION_ENERGY=102040
PARENT_MASS=238.06272354800925
55.935322 0.000461444799335773
61.860561 0.00042183202564231674
69.070152 0.0006281705623922313
92.362663 0.0005248252372453031
103.054321 0.00047429694368964994
108.853439 0.0004519377336493435
129.033081 0.0006417269338339918
136.436432 0.0006311635275157368
137.023804 0.003861453179638119
164.255936 0.0004924307912026544
188.609924 0.0005345083597037035
225.727036 0.0005151421147869026
239.070007 1.0
END IONS

BEGIN IONS
CHARGE=1+
PRECURSORTYPE=M+H
FORMULA=C9H15N3O11P2
ONTOLOGY=
INCHIKEY=ZWIADYZPOWUWEW-XVFCMESISA-N
INCHI=InChI=1S/C9H15N3O11P2/c10-5-1-2-12(9(15)11-5)8-7(14)6(13)4(22-8)3-21-25(19,20)23-24(16,17)18/h1-2,4,6-8,13-14H,3H2,(H,19,20)(H2,10,11,15)(H2,16,17,18)/t4-,6-,7-,8-/m1/s1
SMILES=N=c1ccn([C@@H]2O[C@H](COP(=O)(O)OP(=O)(O)O)[C@@H](O)[C@H]2O)c(O)n1
IONMODE=positive
INSTRUMENTTYPE=LC-ESI-Orbitrap
INSTRUMENT=Orbitrap
COMMENT=DB#=CCMSLIB00010102932; origin=GNPS
NUM_PEAKS=14
COMPOUND_NAME=Cytidine diphosphate
PRECURSOR_MZ=404.025
COLLISION_ENERGY=102040
PARENT_MASS=403.0177235480092
52.220299 0.0056100217409354065
82.417603 0.005411356839676641
92.399696 0.006415047645885174
96.693604 0.00535431884524711
97.028702 0.0419370340644051
112.051003 1.0
118.683998 0.005988003489720797
136.246002 0.008276903009915638
208.070999 0.011061207385527346
208.548996 0.025432188482663362
218.362 0.005243965902886631
306.049988 0.010762480288235338
403.85199 0.011748558949108447
404.024994 0.083399041443894
END IONS

BEGIN IONS
CHARGE=1+
PRECURSORTYPE=M+H
FORMULA=C9H15N3O11P2
ONTOLOGY=
INCHIKEY=ZWIADYZPOWUWEW-XVFCMESISA-N
INCHI=InChI=1S/C9H15N3O11P2/c10-5-1-2-12(9(15)11-5)8-7(14)6(13)4(22-8)3-21-25(19,20)23-24(16,17)18/h1-2,4,6-8,13-14H,3H2,(H,19,20)(H2,10,11,15)(H2,16,17,18)/t4-,6-,7-,8-/m1/s1
SMILES=N=c1ccn([C@@H]2O[C@H](COP(=O)(O)OP(=O)(O)O)[C@@H](O)[C@H]2O)c(O)n1
IONMODE=positive
INSTRUMENTTYPE=LC-ESI-Orbitrap
INSTRUMENT=Orbitrap
COMMENT=DB#=CCMSLIB00010126547; origin=GNPS
NUM_PEAKS=14
COMPOUND_NAME=Cytidine diphosphate
PRECURSOR_MZ=404.025
COLLISION_ENERGY=102040
PARENT_MASS=403.0177235480092
52.220299 0.0056100217409354065
82.417603 0.005411356839676641
92.399696 0.006415047645885174
96.693604 0.00535431884524711
97.028702 0.0419370340644051
112.051003 1.0
118.683998 0.005988003489720797
136.246002 0.008276903009915638
208.070999 0.011061207385527346
208.548996 0.025432188482663362
218.362 0.005243965902886631
306.049988 0.010762480288235338
403.85199 0.011748558949108447
404.024994 0.083399041443894
END IONS

BEGIN IONS
CHARGE=1+
PRECURSORTYPE=M+H
FORMULA=C16H12O5
ONTOLOGY=
INCHIKEY=DANYIYRPLHHOCZ-UHFFFAOYSA-N
INCHI=InChI=1S/C16H12O5/c1-20-11-4-2-9(3-5-11)14-8-13(19)16-12(18)6-10(17)7-15(16)21-14/h2-8,17-18H,1H3
SMILES=COc1ccc(-c2cc(=O)c3c(O)cc(O)cc3o2)cc1
IONMODE=positive
INSTRUMENTTYPE=LC-ESI-Orbitrap
INSTRUMENT=Orbitrap
COMMENT=DB#=CCMSLIB00010107709; origin=GNPS
NUM_PEAKS=15
COMPOUND_NAME=acacetin
PRECURSOR_MZ=285.076
COLLISION_ENERGY=102040
PARENT_MASS=284.06872354800925
55.160568 0.0015188675783508558
64.471542 0.0011167123037695488
66.743874 0.0012624997892527847
82.398407 0.0010983648991339033
92.382683 0.0015084541865306247
133.063919 0.0018486249859915086
137.656372 0.0011053071603473908
147.285477 0.0013215090095674278
157.089035 0.001232251365394018
168.616409 0.0012129122091564459
205.829269 0.0011742338966813017
213.769363 0.0013591955704406451
242.056534 0.007561114213089732
270.051514 0.10513657907185935
285.075073 1.0
END IONS

BEGIN IONS
CHARGE=1+
PRECURSORTYPE=M+H
FORMULA=C16H12O5
ONTOLOGY=
INCHIKEY=DANYIYRPLHHOCZ-UHFFFAOYSA-N
INCHI=InChI=1S/C16H12O5/c1-20-11-4-2-9(3-5-11)14-8-13(19)16-12(18)6-10(17)7-15(16)21-14/h2-8,17-18H,1H3
SMILES=COc1ccc(-c2cc(=O)c3c(O)cc(O)cc3o2)cc1
IONMODE=positive
INSTRUMENTTYPE=LC-ESI-Orbitrap
INSTRUMENT=Orbitrap
COMMENT=DB#=CCMSLIB00010107710; origin=GNPS
NUM_PEAKS=16
COMPOUND_NAME=acacetin
PRECURSOR_MZ=285.076
COLLISION_ENERGY=102040
PARENT_MASS=284.06872354800925
51.176449 0.00025161442957447966
51.542252 0.00025436036533663656
53.036369 0.0002258893471711153
62.841709 0.00021331585183913384
74.096252 0.0002240105490180606
103.948601 0.00021252097569745683
133.064453 0.0023013109530897343
153.017914 0.002249282696543604
240.231583 0.001435690834803493
242.056686 0.010892115507932358
268.07254 0.00047085572174247834
270.051727 0.04330203400133279
283.833527 0.0011551718182589408
284.065948 0.0003865265892572923
285.075226 1.0
286.324097 0.0010415045299991313
END IONS

BEGIN IONS
CHARGE=1+
PRECURSORTYPE=M+H
FORMULA=C16H12O5
ONTOLOGY=
INCHIKEY=DANYIYRPLHHOCZ-UHFFFAOYSA-N
INCHI=InChI=1S/C16H12O5/c1-20-11-4-2-9(3-5-11)14-8-13(19)16-12(18)6-10(17)7-15(16)21-14/h2-8,17-18H,1H3
SMILES=COc1ccc(-c2cc(=O)c3c(O)cc(O)cc3o2)cc1
IONMODE=positive
INSTRUMENTTYPE=LC-ESI-Orbitrap
INSTRUMENT=Orbitrap
COMMENT=DB#=CCMSLIB00010107712; origin=GNPS
NUM_PEAKS=20
COMPOUND_NAME=acacetin
PRECURSOR_MZ=285.076
COLLISION_ENERGY=102040
PARENT_MASS=284.06872354800925
73.949997 0.0005583845691638191
74.66964 0.000624714413171633
87.3134 0.0006223300070144894
90.867348 0.0005735580628910968
94.293861 0.0005330231582196549
97.326736 0.0006210294218378656
104.279869 0.0006355526229768314
106.996857 0.0005716071851261611
117.294823 0.0006307838106625441
131.507339 0.0006075900416794197
132.26593 0.0005822286307352554
142.007935 0.0006288329328976084
151.038788 0.0014495021793472277
189.265259 0.0005822286307352554
219.205963 0.0007268103495366015
242.057236 0.015342786564434892
257.07901 0.0007653943764431077
270.051941 0.02322194832861799
283.834351 0.0006108415046209791
285.0755 1.0
END IONS

BEGIN IONS
CHARGE=1+
PRECURSORTYPE=M+H
FORMULA=C23H23N3O3
ONTOLOGY=
INCHIKEY=DCCAEOPQQCUJLL-UHFFFAOYSA-N
INCHI=InChI=1S/C23H23N3O3/c27-21(24-17-9-3-1-4-10-17)16-26-20-12-6-5-11-18(20)19(15-22(26)28)23(29)25-13-7-2-8-14-25/h1,3-6,9-12,15H,2,7-8,13-14,16H2,(H,24,27)
SMILES=O=C(c1cc(=O)n(CC(O)=Nc2ccccc2)c2ccccc12)N1CCCCC1
IONMODE=positive
INSTRUMENTTYPE=LC-ESI-Orbitrap
INSTRUMENT=Orbitrap
COMMENT=DB#=CCMSLIB00010113232; origin=GNPS
NUM_PEAKS=26
COMPOUND_NAME=2-[2-oxo-4-(piperidylcarbonyl)hydroquinolyl]-N-phenylacetamide
PRECURSOR_MZ=390.181
COLLISION_ENERGY=102040
PARENT_MASS=389.1737235480092
52.469181 0.0024270701332919425
61.112919 0.0017807266074995926
66.746384 0.002088840187895229
67.071831 0.0018131596159622913
68.139503 0.0017838154654484211
71.413017 0.0022332442970029584
71.541359 0.0019065975689143513
82.064827 0.0024108536290605932
82.404541 0.002410081414573386
82.518227 0.0017853598944228353
84.080856 0.0027297782122771294
89.972931 0.0019065975689143513
98.096237 0.014285195798844304
112.075661 0.011031856164240754
158.060867 0.003997754400271202
186.055328 0.0153384963593948
225.137833 0.01155927865900321
241.133438 0.014004881939988124
257.128571 0.04629889179498941
269.128021 0.3420300128882598
297.122894 1.0
310.154388 0.004192352451047393
327.25827 0.0019753246582757842
335.390259 0.0019351695049410144
390.185333 0.009170819250071623
390.247101 0.0020556349649453235
END IONS

BEGIN IONS
CHARGE=1+
PRECURSORTYPE=M+H
FORMULA=C15H12O4
ONTOLOGY=
INCHIKEY=MSDGTBGJKOTHCN-UHFFFAOYSA-N
INCHI=InChI=1S/C15H12O4/c16-12(8-6-10-4-2-1-3-5-10)11-7-9-13(17)15(19)14(11)18/h1-9,17-19H/b8-6+
SMILES=O=C(C=Cc1ccccc1)c1ccc(O)c(O)c1O
IONMODE=positive
INSTRUMENTTYPE=LC-ESI-Orbitrap
INSTRUMENT=Orbitrap
COMMENT=DB#=CCMSLIB00010108367; origin=GNPS
NUM_PEAKS=43
COMPOUND_NAME="2',3',4'-Trihydroxychalcone "
PRECURSOR_MZ=257.081
COLLISION_ENERGY=102040
PARENT_MASS=256.07372354800924
72.174057 0.0004814031425118119
77.0392 0.0005573563344687397
79.018341 0.0005064003955609274
79.05452 0.0005631249313262279
84.960426 0.0006168278211185584
91.054337 0.000706790462586529
103.054199 0.0445584276453137
105.033928 0.000726293813866608
107.012642 0.0030011811888803427
107.04924 0.0035976815734534667
125.023331 0.004949593451269091
125.94294 0.00043594110537303595
127.038811 0.0005951269091308647
131.049194 0.40260465882870017
133.028259 0.0010114273156795956
135.007004 0.0005079112185474124
137.023407 0.0037718382595319194
137.712265 0.0004029776947588177
140.068604 0.0007313756730029668
151.039322 0.0027624711570157123
152.009628 0.0005385397209097902
153.018219 0.1931848148555104
155.08551 0.004744258872651357
161.023865 0.0008021096582793099
165.070145 0.004819937369519833
167.086014 0.0006556971761344907
169.065048 0.0022058015602681026
171.027634 0.002298785847709043
179.03389 0.015178689155037908
179.050293 0.0008850675749917592
183.080276 0.0066658883639160536
187.075912 0.0010386221294363257
193.064804 0.019073865509284693
193.084167 0.0008607570596637732
197.059845 0.000862679925282936
211.075241 0.024535627952972202
215.070282 0.005275381826172948
221.05983 0.00910627952972201
229.0858 0.000898939676958576
239.069977 0.0773425997143171
242.057144 0.03446764091858038
256.017761 0.0005771343808372707
257.080566 1.0
END IONS

BEGIN IONS
CHARGE=1+
PRECURSORTYPE=M+H
FORMULA=C14H13N3O2
ONTOLOGY=
INCHIKEY=OYGOCOVQYGJSNQ-UHFFFAOYSA-N
INCHI=InChI=1S/C14H13N3O2/c1-10-7-13(18)16(2)14(19)17(10)9-12-6-4-3-5-11(12)8-15/h3-7H,9H2,1-2H3
SMILES=Cc1cc(=O)n(C)c(=O)n1Cc1ccccc1C#N
IONMODE=positive
INSTRUMENTTYPE=LC-ESI-Orbitrap
INSTRUMENT=Orbitrap
COMMENT=DB#=CCMSLIB00010105966; origin=GNPS
NUM_PEAKS=33
COMPOUND_NAME="2-[(3,6-dimethyl-2,4-dioxo-1,3-dihydropyrimidinyl)methyl]benzenecarbonitrile "
PRECURSOR_MZ=256.108
COLLISION_ENERGY=102040
PARENT_MASS=255.10072354800926
53.255409 0.000308379723417455
58.53318 0.0002809671529107799
73.957748 0.00034553404786272235
89.03878 0.0025625256875900673
96.044502 0.0005198447831024799
104.292801 0.0003413590104604685
110.023933 0.0005686588058391956
116.049431 0.3748492659465612
127.049622 0.0006134264337826906
130.064896 0.002064374726283612
133.075577 0.0022366271797788413
134.059952 0.035494156491348156
139.051331 0.00031715081039697987
139.880692 0.000325898507811226
147.092178 0.0005637469971306617
153.065552 0.0005796051223896427
156.081009 0.0017939211829656229
157.075897 0.009593592737334154
157.985458 0.0003461538713426088
158.059906 0.006059125359368976
171.091705 0.0013800662149237215
176.07103 0.00030543263819233466
182.06076 0.0004029086514914543
185.403717 0.0003395463191513667
197.071457 0.0004854270377948243
199.086441 0.20657252397828063
212.117615 0.0021634997039348828
214.344116 0.00032468225041673186
215.081436 0.011518951582383615
215.103821 0.0005440178988180504
218.973572 0.00030393570601449575
225.067078 0.0006775255374290583
256.107697 1.0
END IONS

BEGIN IONS
CHARGE=1+
PRECURSORTYPE=M+H
FORMULA=C18H19NO5
ONTOLOGY=
INCHIKEY=BWPNMQBBEJTENG-UHFFFAOYSA-N
INCHI=InChI=1S/C18H19NO5/c1-23-16-8-5-13(11-17(16)24-2)15(20)9-10-19-14-6-3-12(4-7-14)18(21)22/h3-8,11,19H,9-10H2,1-2H3,(H,21,22)
SMILES=COc1ccc(C(=O)CCNc2ccc(C(=O)O)cc2)cc1OC
IONMODE=positive
INSTRUMENTTYPE=LC-ESI-Orbitrap
INSTRUMENT=Orbitrap
COMMENT=DB#=CCMSLIB00010105263; origin=GNPS
NUM_PEAKS=24
COMPOUND_NAME="4-{[3-(3,4-dimethoxyphenyl)-3-oxopropyl]amino}benzoic acid "
PRECURSOR_MZ=330.134
COLLISION_ENERGY=102040
PARENT_MASS=329.12672354800924
65.039078 0.0007240417059599583
77.039162 0.00030920102166577827
79.05407 0.0019517611032189546
82.394402 0.0003335608525458435
98.983307 0.0003809941866027362
100.385841 0.00030622638885204094
106.064697 0.0019598006513641907
107.048668 0.0006435658290261454
118.6521 0.00033452559832327185
124.051872 0.00856694250356353
132.043457 0.0005758728336432579
139.075302 0.06273339813209139
149.581894 0.00044748124976383825
150.054916 1.0
150.529633 0.00044812441361545715
181.0858 0.6125873597400332
191.081833 0.0004057559948900632
192.064468 0.0003948222094125422
193.084213 0.00037271345201314305
298.098877 0.0003290587055845113
308.065094 0.00035848345179607526
312.123169 0.0015837105891300485
315.099792 0.0015310515487787525
330.131317 0.030554141935006687
END IONS

BEGIN IONS
CHARGE=1+
PRECURSORTYPE=M+H
FORMULA=C17H14N2
ONTOLOGY=
INCHIKEY=CTSPAMFJBXKSOY-UHFFFAOYSA-N
INCHI=InChI=1S/C17H14N2/c1-10-14-9-18-8-7-12(14)11(2)17-16(10)13-5-3-4-6-15(13)19-17/h3-9,19H,1-2H3
SMILES=Cc1c2ccncc2c(C)c2c1[nH]c1ccccc12
IONMODE=positive
INSTRUMENTTYPE=LC-ESI-Orbitrap
INSTRUMENT=Orbitrap
COMMENT=DB#=CCMSLIB00010104838; origin=GNPS
NUM_PEAKS=14
COMPOUND_NAME=ellipticine
PRECURSOR_MZ=247.123
COLLISION_ENERGY=102040
PARENT_MASS=246.11572354800924
57.753059 0.00011332663324339378
61.775169 0.0007565202608404468
82.129013 0.00010501940782238359
82.896049 0.00011439853329771767
102.428917 0.00013800713199420145
118.646019 0.00013567574937604698
152.329178 0.00015395164530226937
204.083206 0.0004981655502470301
231.089523 0.001490852190556389
232.099808 0.004773519309421959
245.105408 0.00019803353503633955
246.114609 0.0022164213373282336
247.122849 1.0
248.129745 0.0013396606878940036
END IONS

BEGIN IONS
CHARGE=1+
PRECURSORTYPE=M+H
FORMULA=C8H15NOS2
ONTOLOGY=
INCHIKEY=FCCDDURTIIUXBY-UHFFFAOYSA-N
INCHI=InChI=1S/C8H15NOS2/c9-8(10)4-2-1-3-7-5-6-11-12-7/h7H,1-6H2,(H2,9,10)
SMILES=N=C(O)CCCCC1CCSS1
IONMODE=positive
INSTRUMENTTYPE=LC-ESI-Orbitrap
INSTRUMENT=Orbitrap
COMMENT=DB#=CCMSLIB00010112637; origin=GNPS
NUM_PEAKS=27
COMPOUND_NAME=lipoamide
PRECURSOR_MZ=206.067
COLLISION_ENERGY=102040
PARENT_MASS=205.05972354800926
50.761921 0.005430068116340859
51.24868 0.004805282730303614
72.809013 0.004755845414628088
73.933968 0.005546233631499606
78.043297 0.005126016448257639
81.070297 0.023574902403919917
93.070183 0.005831898514688728
95.085793 0.02339066925461679
98.097031 0.0062913246034664565
101.042313 0.35405191161679506
104.983147 0.05061553111019651
105.07016 0.0102741944518181
115.057457 0.005871838020948758
118.626556 0.005941366856541677
123.080383 0.04211742701907598
127.057716 0.10346962283955277
136.177383 0.005053078142618132
137.041763 0.012941495929336298
138.049011 0.00778394188314772
140.10675 0.02462769804759133
155.051895 0.0233989493961585
161.045166 0.744364754846927
171.029663 0.1698091427374635
178.943741 0.006052052866268408
189.040024 1.0
197.727066 0.005052225775106485
206.066132 0.022088860530757072
END IONS

BEGIN IONS
CHARGE=1+
PRECURSORTYPE=M+H
FORMULA=C21H24N2O4
ONTOLOGY=
INCHIKEY=VNBUDGXHADQNRB-UHFFFAOYSA-N
INCHI=InChI=1S/C21H24N2O4/c1-3-23(4-2)21(25)16-6-5-7-17(12-16)22-11-10-18(24)15-8-9-19-20(13-15)27-14-26-19/h5-9,12-13,22H,3-4,10-11,14H2,1-2H3
SMILES=CCN(CC)C(=O)c1cccc(NCCC(=O)c2ccc3c(c2)OCO3)c1
IONMODE=positive
INSTRUMENTTYPE=LC-ESI-Orbitrap
INSTRUMENT=Orbitrap
COMMENT=DB#=CCMSLIB00010114658; origin=GNPS
NUM_PEAKS=21
COMPOUND_NAME="{3-[(3-(2H-benzo[3,4-d]1,3-dioxolan-5-yl)-3-oxopropyl)amino]phenyl}-N,N-diethy lcarboxamide "
PRECURSOR_MZ=369.181
COLLISION_ENERGY=102040
PARENT_MASS=368.1737235480092
56.70332 0.0030744832003973266
66.552391 0.0030222776572974177
69.153473 0.003878730756260785
82.40786 0.0035711413401586204
92.382317 0.0036289907257558165
104.293472 0.004457224612232746
120.044441 0.04467524624790296
130.064728 0.005701691882884624
132.044525 0.4759565254812434
136.232101 0.0034667302539588027
150.054962 0.08966372575440537
163.075714 0.006720405453645005
165.054703 0.08005649486339785
173.949951 0.003246620396564593
177.102417 0.05347399670117406
189.102325 1.0
193.084442 0.004255457242954721
268.132904 0.04204803756541566
341.128265 0.0032635519240564554
369.180756 0.1053197448418807
369.228333 0.007485146112027451
END IONS

BEGIN IONS
CHARGE=1+
PRECURSORTYPE=M+H
FORMULA=C21H20BrN3O3
ONTOLOGY=
INCHIKEY=HTVPFVSNIFRBPB-UHFFFAOYSA-N
INCHI=InChI=1S/C21H20BrN3O3/c1-2-11-23-21(28)17-12-20(27)25(18-6-4-3-5-16(17)18)13-19(26)24-15-9-7-14(22)8-10-15/h3-10,12H,2,11,13H2,1H3,(H,23,28)(H,24,26)
SMILES=CCCN=C(O)c1cc(=O)n(CC(=O)Nc2ccc(Br)cc2)c2ccccc12
IONMODE=positive
INSTRUMENTTYPE=LC-ESI-Orbitrap
INSTRUMENT=Orbitrap
COMMENT=DB#=CCMSLIB00010113941; origin=GNPS
NUM_PEAKS=34
COMPOUND_NAME=N-(4-bromophenyl)-2-[2-oxo-4-(N-propylcarbamoyl)hydroquinolyl]acetamide
PRECURSOR_MZ=442.076
COLLISION_ENERGY=102040
PARENT_MASS=441.06872354800925
51.613319 0.0014826011878210925
63.422451 0.0013752924164021167
70.065247 0.0016635759807006624
73.940063 0.0015667080627170464
75.821037 0.0014715802869726571
77.951302 0.0015655479678908955
80.39341 0.0014994225628002832
84.924156 0.001703599252202875
102.895271 0.001404294787055894
114.898819 0.0014681000024942038
118.065437 0.001429816873231218
118.626259 0.0014153156879043293
124.771233 0.0014379375370142755
128.04985 0.002950121142902221
128.858597 0.0014710002395595817
129.11203 0.001540605929128647
130.064987 0.03654066683410702
130.9254 0.0014077750715343472
133.934555 0.0018404904416887036
143.073746 0.0014866615197126213
144.044144 0.00358817329728532
146.059891 0.03221699341704191
154.664307 0.0017471028081835409
158.059937 0.05065844082095271
186.054794 0.0037940901289271385
201.065506 0.007444908546824618
214.89299 0.001690838209115213
215.117508 0.00793678875311268
231.112564 0.056294761533807774
243.112396 0.2575996361942625
271.107208 1.0
284.139038 0.01251568303193103
433.123505 0.001800467170186491
442.073334 0.007284815460815767
END IONS

BEGIN IONS
CHARGE=1+
PRECURSORTYPE=M+H
FORMULA=C15H16O9
ONTOLOGY=
INCHIKEY=XHCADAYNFIFUHF-UHFFFAOYSA-N
INCHI=InChI=1S/C15H16O9/c16-5-10-12(19)13(20)14(21)15(24-10)23-9-3-6-1-2-11(18)22-8(6)4-7(9)17/h1-4,10,12-17,19-21H,5H2
SMILES=O=c1ccc2cc(OC3OC(CO)C(O)C(O)C3O)c(O)cc2o1
IONMODE=positive
INSTRUMENTTYPE=LC-ESI-Orbitrap
INSTRUMENT=Orbitrap
COMMENT=DB#=CCMSLIB00010110063; origin=GNPS
NUM_PEAKS=29
COMPOUND_NAME=NSC26665
PRECURSOR_MZ=341.087
COLLISION_ENERGY=102040
PARENT_MASS=340.0797235480092
50.788239 0.0005046340011591075
61.028702 0.0013410821400666692
69.033836 0.003365409945530916
81.033463 0.000820193730132722
85.028526 0.011459171353977305
88.710922 0.0005758171016558198
92.374649 0.0005266802107617638
97.028168 0.003881440716060888
99.043953 0.0006436372210267032
104.280609 0.0005264933784769956
109.028214 0.0012439293519871668
118.652977 0.0005586285314571386
119.517593 0.0005677833134107841
121.289413 0.0005294826950332879
123.043312 0.004564499549173697
127.038933 0.0036069840897362936
131.895554 0.0005306036887418975
133.028168 0.007050676762585116
135.043823 0.0011357534591063363
138.764389 0.000646252873013459
145.049271 0.0040040026948688755
151.039093 0.006370233581459063
168.960754 0.0005913241812915865
178.413544 0.0007962791976823828
179.033615 1.0
185.395203 0.0006748382125830049
207.178574 0.0005046340011591075
280.909302 0.0008358876420532569
341.085724 0.12437724128679616
END IONS

BEGIN IONS
CHARGE=1+
PRECURSORTYPE=M+H
FORMULA=C29H23ClN2O3
ONTOLOGY=
INCHIKEY=GTIJUYRURIFXCS-UHFFFAOYSA-N
INCHI=InChI=1S/C29H23ClN2O3/c1-16-10-11-26-19(12-16)29(34)20(15-35-26)28-27-24(31-22-8-4-5-9-23(22)32-28)13-17(14-25(27)33)18-6-2-3-7-21(18)30/h2-12,15,17,28,31-32H,13-14H2,1H3
SMILES=Cc1ccc2occ(C3Nc4ccccc4NC4=C3C(=O)CC(c3ccccc3Cl)C4)c(=O)c2c1
IONMODE=positive
INSTRUMENTTYPE=LC-ESI-Orbitrap
INSTRUMENT=Orbitrap
COMMENT=DB#=CCMSLIB00010105635; origin=GNPS
NUM_PEAKS=52
COMPOUND_NAME="3-[3-(2-chlorophenyl)-1-oxo(2,3,4-trihydro-5H,10H,11H-benzo[b]benzo[2,1-f]1,4- diazepin-11-yl)]-6-methylchromen-4-one "
PRECURSOR_MZ=483.147
COLLISION_ENERGY=102040
PARENT_MASS=482.1397235480092
73.949547 0.0005526427910475103
82.394867 0.000554112976711377
83.393463 0.0004435550147885976
119.059578 0.0008263913616594986
121.655128 0.00048148580491635967
132.067291 0.0007652316380426418
133.075821 0.011165030987103237
135.043655 0.006040845874262077
138.9944 0.0036112170461558906
157.07608 0.0036431200750617993
161.059387 0.025663119892758778
164.995316 0.000811248449321671
165.009903 0.017032394953029037
169.076004 0.0006540856018543157
173.059036 0.004304850642368222
183.091034 0.000695985893274518
185.070251 0.009478581012081691
187.074203 0.0006070396606105799
191.069656 0.0023752319585431166
211.085632 0.0029137609672175062
213.05394 0.005417487152782576
255.067062 0.002770123827857725
278.893707 0.0006623186415719696
281.083008 0.001214373358353933
287.114594 0.0021036886664269282
288.921997 0.0007217141423921862
292.075684 0.0005173583351147083
297.078461 0.0027476299872005636
303.114014 0.0010172214608294022
305.083771 0.004036247721579767
307.098022 0.0006121853104341135
309.067566 0.0027621848252728444
310.085205 0.0007105407313467988
313.078491 0.0009041641832780495
317.127808 0.0008202165818712582
320.400208 0.0004908949931651069
323.093536 0.2781320761873734
331.098938 0.003762499150967779
343.14566 0.000554554032410537
345.119476 0.0006348261696576614
347.089264 0.0012456883129942948
349.109192 0.07474953181937534
351.077637 0.004706211328603844
365.092957 0.0030829793371285686
375.084198 0.000713187065541759
395.954071 0.0005361767116122026
398.135437 0.0010435377842126171
457.697388 0.0005467620483920432
465.135712 0.024723524234981538
466.120911 0.0006884879463887976
481.135376 0.0019665203439881607
483.146057 1.0
END IONS

BEGIN IONS
CHARGE=1+
PRECURSORTYPE=M+H
FORMULA=C12H11N5O
ONTOLOGY=
INCHIKEY=BUDWTFCZGZYQHZ-UHFFFAOYSA-N
INCHI=InChI=1S/C12H11N5O/c18-9-3-1-2-8(4-9)5-13-11-10-12(15-6-14-10)17-7-16-11/h1-4,6-7,18H,5H2,(H2,13,14,15,16,17)
SMILES=C1=CC(=CC(=C1)O)CNC2=NC=NC3=C2NC=N3
IONMODE=positive
INSTRUMENTTYPE=LC-ESI-Orbitrap
INSTRUMENT=Orbitrap
COMMENT=DB#=CCMSLIB00010102067; origin=GNPS
NUM_PEAKS=19
COMPOUND_NAME=meta-topolin
PRECURSOR_MZ=242.104
COLLISION_ENERGY=102040
PARENT_MASS=241.09672354800927
50.688297 0.00047480594818217207
53.038815 0.0006712156383402358
56.672714 0.0004306160493560874
77.038742 0.0007570198524380042
79.054413 0.00463457742009263
82.44561 0.0005490450993191654
95.049011 0.0007554962615036722
106.762047 0.0010131415980029338
107.049316 0.5053082171223438
107.337608 0.0011459634128946124
136.062012 0.03640667931789967
143.002274 0.0005200477898766667
148.061661 0.008197844052865767
173.07048 0.0007579914650978378
225.076202 0.0012204421636457202
241.129044 0.0020890166501200858
242.103134 1.0
243.083267 0.0018412266898217061
244.697693 0.0005272260893425842
END IONS

BEGIN IONS
CHARGE=1+
PRECURSORTYPE=M+H
FORMULA=C25H29N3O3S
ONTOLOGY=
INCHIKEY=NGTSRFJHFKEKPL-UHFFFAOYSA-N
INCHI=InChI=1S/C25H29N3O3S/c1-3-18-7-8-23-22(13-18)19(14-25(30)31-23)16-27-9-11-28(12-10-27)17-24(29)26-20-5-4-6-21(15-20)32-2/h4-8,13-15H,3,9-12,16-17H2,1-2H3,(H,26,29)
SMILES=CCc1ccc2oc(=O)cc(CN3CCN(CC(O)=Nc4cccc(SC)c4)CC3)c2c1
IONMODE=positive
INSTRUMENTTYPE=LC-ESI-Orbitrap
INSTRUMENT=Orbitrap
COMMENT=DB#=CCMSLIB00010108050; origin=GNPS
NUM_PEAKS=27
COMPOUND_NAME=2-{4-[(6-ethyl-2-oxochromen-4-yl)methyl]piperazinyl}-N-(3-methylthiophenyl)ace tamide
PRECURSOR_MZ=452.2
COLLISION_ENERGY=102040
PARENT_MASS=451.1927235480092
56.049938 0.012327828518533736
56.746109 0.0017099325936112569
58.065639 0.010271075674486839
64.566177 0.001697848264327785
70.065483 0.06254425885600072
72.081146 0.010499469497944456
76.266724 0.001603590495916705
85.076462 0.002299043646180506
92.41375 0.0021195913563209503
97.07605 0.37751807211444344
98.08387 0.0075472678539922995
99.091927 0.00406577258742408
105.983269 0.0016386350508387733
111.091637 0.003250080360789735
142.855347 0.0021485937466012824
159.080719 0.002477287503111715
200.107788 0.0038917582457420868
228.101944 0.004009580456255936
235.830658 0.0016718669563683206
240.103638 0.00210448594471661
242.11795 0.01181001500873697
270.13623 0.001905094511539326
285.159271 0.321689075041268
299.104309 0.0023262333870683175
321.884003 0.0017751879717420045
452.199341 1.0
474.198303 0.0019123451091094092
END IONS

BEGIN IONS
CHARGE=1+
PRECURSORTYPE=M+H
FORMULA=C26H23N3O4
ONTOLOGY=
INCHIKEY=VIPXLWNGZDNITH-UHFFFAOYSA-N
INCHI=InChI=1S/C26H23N3O4/c1-16-10-12-17(13-11-16)24(30)28-22-9-5-3-7-20(22)25(31)29-23(26(32)33)14-18-15-27-21-8-4-2-6-19(18)21/h2-13,15,23,27H,14H2,1H3,(H,28,30)(H,29,31)(H,32,33)
SMILES=Cc1ccc(C(=O)Nc2ccccc2C(O)=NC(Cc2c[nH]c3ccccc23)C(=O)O)cc1
IONMODE=positive
INSTRUMENTTYPE=LC-ESI-Orbitrap
INSTRUMENT=Orbitrap
COMMENT=DB#=CCMSLIB00010111460; origin=GNPS
NUM_PEAKS=28
COMPOUND_NAME=3-indol-3-yl-2-({2-[(4-methylphenyl)carbonylamino]phenyl}carbonylamino)propano ic acid
PRECURSOR_MZ=442.176
COLLISION_ENERGY=102040
PARENT_MASS=441.1687235480092
51.259239 0.0008198607494181126
55.163811 0.0011694332775442405
91.054581 0.00235018365132278
92.38372 0.0009836442810311635
118.065468 0.0039644416836318325
119.049133 0.11820109725535267
120.044456 0.006912859616451034
130.065292 0.006027296836117129
132.080872 0.008799985413520409
144.080978 0.014601883416304414
146.023758 0.09986771571957241
146.059998 0.07960131127421702
147.055313 0.024377654016248834
159.091583 0.017171492989058883
170.060715 0.0020612833335638668
188.070557 0.48065845380801425
205.097168 0.6371688649078222
210.427811 0.0013347886280787218
221.093353 0.0011886094683856918
237.080017 0.0011489996315656448
238.08609 1.0
261.102051 0.004427185174100951
268.047363 0.001145855993722784
278.126892 0.0022904545323084234
306.123505 0.005493192766615069
369.927582 0.0012071569316585708
442.036896 0.0014382143131088441
442.175079 0.0047468931427199
END IONS

BEGIN IONS
CHARGE=1+
PRECURSORTYPE=M+H
FORMULA=C11H14O3
ONTOLOGY=
INCHIKEY=BSVXIKDDVDCMIO-UHFFFAOYSA-N
INCHI=InChI=1S/C11H14O3/c1-8(2)14-10-5-4-9(7-12)6-11(10)13-3/h4-8H,1-3H3
SMILES=COc1cc(C=O)ccc1OC(C)C
IONMODE=positive
INSTRUMENTTYPE=LC-ESI-Orbitrap
INSTRUMENT=Orbitrap
COMMENT=DB#=CCMSLIB00010108770; origin=GNPS
NUM_PEAKS=24
COMPOUND_NAME=3-methoxy-4-(methylethoxy)benzaldehyde
PRECURSOR_MZ=195.102
COLLISION_ENERGY=102040
PARENT_MASS=194.09472354800926
54.85125 0.0006597670068086019
62.1926 0.0005866900881648818
65.038948 0.032534674075790214
69.037392 0.0005664037511281393
71.952332 0.001226401284493977
76.298988 0.0005581047950676538
76.316032 0.0006353311917416167
79.763199 0.0005521111045795254
93.033607 0.16012582139493925
95.048752 0.0009066609496080472
97.065033 0.001393302511932631
104.28598 0.0009629094295735605
107.049339 0.0008425745666965198
110.036217 0.01707049156330432
111.044037 0.18002003275782377
112.966766 0.0012123391645025986
121.101387 0.0009917252492280242
125.059677 0.5199911477802022
134.05986 0.011953724098900503
143.529526 0.0005749332337458606
153.054535 1.0
187.935501 0.0006406333025580379
194.080399 0.0010071705285628167
195.101929 0.02369029218088497
END IONS

BEGIN IONS
CHARGE=1+
PRECURSORTYPE=M+H
FORMULA=C18H21NO3
ONTOLOGY=
INCHIKEY=FQTHQCIXDOKIDK-UHFFFAOYSA-N
INCHI=InChI=1S/C18H21NO3/c1-5-19(15-9-7-6-8-13(15)2)18(20)14-10-11-16(21-3)17(12-14)22-4/h6-12H,5H2,1-4H3
SMILES=CCN(C(=O)c1ccc(OC)c(OC)c1)c1ccccc1C
IONMODE=positive
INSTRUMENTTYPE=LC-ESI-Orbitrap
INSTRUMENT=Orbitrap
COMMENT=DB#=CCMSLIB00010103811; origin=GNPS
NUM_PEAKS=30
COMPOUND_NAME="(3,4-dimethoxyphenyl)-N-ethyl-N-(2-methylphenyl)carboxamide "
PRECURSOR_MZ=300.159
COLLISION_ENERGY=102040
PARENT_MASS=299.1517235480092
53.03896 0.0003746636038286918
54.376911 0.0003432702362729794
65.038857 0.0005226454433068258
77.340927 0.0004050826944602614
79.05426 0.00044004841073783075
91.05426 0.0037736992861797736
106.040916 0.0008708953171920906
106.06501 0.011995297490046138
107.048866 0.0006799370400601021
107.56012 0.0003941491423115478
109.064491 0.0016405740872649016
116.049347 0.0025216451856647057
122.036079 0.0004670034056391148
124.051163 0.0007164182982196713
126.031609 0.0005346615253712536
132.044159 0.002362188529080001
134.059875 0.3515462857316062
134.095978 0.007607911994647972
152.070984 0.0006255940382912481
155.070435 0.0005833753715783936
162.091095 0.3351036305888313
164.070343 0.0019271197559544559
165.054382 0.22749766714803163
192.101273 0.0009069435633853742
194.743927 0.00045910093725440104
254.116196 0.0005027268928576842
285.136414 0.0016825762479946134
298.818878 0.0004447032893754019
300.15863 1.0
301.50473 0.0005965822365501071
END IONS

BEGIN IONS
CHARGE=1+
PRECURSORTYPE=M+H
FORMULA=C23H18O4
ONTOLOGY=
INCHIKEY=WSYFPEGOIIMZQZ-UHFFFAOYSA-N
INCHI=InChI=1S/C23H18O4/c1-15-7-12-19-20(13-15)27-23(22(25)21(19)24)17-8-10-18(11-9-17)26-14-16-5-3-2-4-6-16/h2-13,25H,14H2,1H3
SMILES=Cc1ccc2c(=O)c(O)c(-c3ccc(OCc4ccccc4)cc3)oc2c1
IONMODE=positive
INSTRUMENTTYPE=LC-ESI-Orbitrap
INSTRUMENT=Orbitrap
COMMENT=DB#=CCMSLIB00010109092; origin=GNPS
NUM_PEAKS=23
COMPOUND_NAME=3-hydroxy-7-methyl-2-[4-(phenylmethoxy)phenyl]chromen-4-one
PRECURSOR_MZ=359.128
COLLISION_ENERGY=102040
PARENT_MASS=358.1207235480092
50.613129 0.0010104654225720074
65.038986 0.0049302390217878175
73.953194 0.0013877215496472595
75.607903 0.0010159613495013035
78.839333 0.0010379450572184877
81.948692 0.0009908371121102356
82.400978 0.001361812179837721
85.54377 0.00108073477402515
91.054314 0.29713611173376475
111.16993 0.0010457963814031964
133.826538 0.0010728834498404415
135.043976 0.004371224739836559
188.042526 0.0011376568743642881
211.076935 0.0012043931299343118
212.083435 0.005417021121239755
240.077759 0.047119329528319924
240.105911 0.0016515260422534713
268.072418 0.19489930873016215
271.678253 0.001177306061497067
281.081879 0.0013288366182619446
331.131897 0.008821747853938676
341.114685 0.0015981370377974524
359.126953 1.0
END IONS

BEGIN IONS
CHARGE=1+
PRECURSORTYPE=M+H
FORMULA=C16H11ClN2O2
ONTOLOGY=
INCHIKEY=BXABDEVENMKCAF-UHFFFAOYSA-N
INCHI=InChI=1S/C16H11ClN2O2/c17-11-5-3-6-12(9-11)19-16(20)13-8-10-4-1-2-7-14(10)21-15(13)18/h1-9,18H,(H,19,20)
SMILES=N=c1oc2ccccc2cc1C(O)=Nc1cccc(Cl)c1
IONMODE=positive
INSTRUMENTTYPE=LC-ESI-Orbitrap
INSTRUMENT=Orbitrap
COMMENT=DB#=CCMSLIB00010104844; origin=GNPS
NUM_PEAKS=24
COMPOUND_NAME=N-(3-chlorophenyl)(2-iminochromen-3-yl)carboxamide
PRECURSOR_MZ=299.058
COLLISION_ENERGY=102040
PARENT_MASS=298.0507235480092
58.37059 0.0002725646599902258
73.951134 0.00027331503223009896
87.594398 0.0002682465669779499
92.37339 0.0003073579936648327
93.310364 0.000259062563183184
104.283928 0.0002590487526511618
107.452263 0.00024010070271669737
116.049599 0.0015518434482283665
128.04924 0.012668695648651227
144.044434 0.0010570443104475017
146.059753 0.0024462319160290192
172.039062 0.34135550924219216
190.049606 0.431609508864336
192.054443 0.0005708859622018628
213.065811 0.002914832474563762
246.07756 0.0014113765270305258
263.08017 0.0014605512280509215
265.324463 0.0002847593597658323
281.047089 0.10032294548080722
282.028442 0.00043565323264043744
297.716614 0.00037310993662254785
298.050751 0.0004432444217419758
299.057526 1.0
300.407227 0.0003908840913351249
END IONS

BEGIN IONS
CHARGE=1+
PRECURSORTYPE=M+H
FORMULA=C28H27N3O3
ONTOLOGY=
INCHIKEY=FGSVYYREXDSLJB-UHFFFAOYSA-N
INCHI=InChI=1S/C28H27N3O3/c1-18-13-19(2)27(20(3)14-18)30-25(32)17-31-24-12-8-7-11-22(24)23(15-26(31)33)28(34)29-16-21-9-5-4-6-10-21/h4-15H,16-17H2,1-3H3,(H,29,34)(H,30,32)
SMILES=Cc1cc(C)c(N=C(O)Cn2c(=O)cc(C(O)=NCc3ccccc3)c3ccccc32)c(C)c1
IONMODE=positive
INSTRUMENTTYPE=LC-ESI-Orbitrap
INSTRUMENT=Orbitrap
COMMENT=DB#=CCMSLIB00010110904; origin=GNPS
NUM_PEAKS=25
COMPOUND_NAME="2-{2-oxo-4-[N-benzylcarbamoyl]hydroquinolyl}-N-(2,4,6-trimethylphenyl)acetamid e "
PRECURSOR_MZ=454.213
COLLISION_ENERGY=102040
PARENT_MASS=453.20572354800925
61.713711 0.0006425803999881088
65.038857 0.000910963219911968
79.035622 0.0006903945352185407
82.028992 0.0027624096910520836
91.054413 0.257262707282072
104.276543 0.0007783309665336394
132.406601 0.000609942055504727
158.060226 0.0014797435416096275
180.080719 0.013073008234633525
186.054489 0.000875206562261384
190.406784 0.0007234486547908828
199.050354 0.003853819299572812
204.080963 0.0009226049224028557
206.059586 0.0015169554120715723
218.09642 0.03209097657876558
232.075806 0.0028821529166726434
233.107162 0.009334150747158229
248.107254 0.0010155306547854777
261.102295 0.008299286550736099
264.020782 0.0007804098419784408
279.112091 0.013413943807580951
291.112427 0.20214402740124146
319.107391 1.0
332.138519 0.01066754145745384
454.209045 0.001050455762258141
END IONS

BEGIN IONS
CHARGE=1+
PRECURSORTYPE=M+H
FORMULA=C16H14O3
ONTOLOGY=
INCHIKEY=GUNGQVJAKLIYDG-UHFFFAOYSA-N
INCHI=InChI=1S/C16H14O3/c1-19-13-8-9-14(16(18)11-13)15(17)10-7-12-5-3-2-4-6-12/h2-11,18H,1H3/b10-7+
SMILES=COc1ccc(C(=O)C=Cc2ccccc2)c(O)c1
IONMODE=positive
INSTRUMENTTYPE=LC-ESI-Orbitrap
INSTRUMENT=Orbitrap
COMMENT=DB#=CCMSLIB00010108529; origin=GNPS
NUM_PEAKS=33
COMPOUND_NAME=2'-Hydroxy-4'-Methoxychalcone
PRECURSOR_MZ=255.102
COLLISION_ENERGY=102040
PARENT_MASS=254.09472354800926
72.160828 0.0006606932063336996
77.472397 0.0007660174217446168
79.05455 0.001291112060894696
91.054314 0.0030279439899051574
92.371948 0.0009362152480970407
95.04911 0.0013249481011112468
103.054161 0.02871356901534579
107.049248 0.006007041966866121
121.064934 0.0031035026661782065
125.059181 0.0007103024382301461
131.049164 0.19695526519314527
136.197937 0.0007128465014043228
149.060013 0.009829242479749258
151.038971 0.23496560426588514
165.070511 0.000986078886310905
169.049454 0.012945974274433183
177.054764 0.020361918427158385
177.070541 0.0014050860910978142
178.077805 0.004282675947409126
179.085007 0.0008479362559531079
194.072922 0.006405442259942199
195.080185 0.0015595107257703423
205.065216 0.005381202426018643
209.096161 0.08723974233728173
212.083694 0.0012750844628973826
213.089951 0.002504375788659584
222.066956 0.0015595107257703423
223.075592 0.001715207392029959
224.081802 0.0007901860218992958
227.106583 0.0108417796230716
237.090515 0.035876378882240406
240.077713 0.03712551390076119
255.10141 1.0
END IONS

BEGIN IONS
CHARGE=1+
PRECURSORTYPE=M+H
FORMULA=C10H20O3
ONTOLOGY=
INCHIKEY=YJCJVMMDTBEITC-UHFFFAOYSA-N
INCHI=InChI=1S/C10H20O3/c11-9-7-5-3-1-2-4-6-8-10(12)13/h11H,1-9H2,(H,12,13)
SMILES=O=C(O)CCCCCCCCCO
IONMODE=positive
INSTRUMENTTYPE=LC-ESI-Orbitrap
INSTRUMENT=Orbitrap
COMMENT=DB#=CCMSLIB00010112506; origin=GNPS
NUM_PEAKS=14
COMPOUND_NAME=10-Hydroxydecanoic acid
PRECURSOR_MZ=189.149
COLLISION_ENERGY=102040
PARENT_MASS=188.14172354800925
67.693916 0.18035217794253938
68.148628 0.21282669138090826
69.070351 1.0
77.914513 0.1684893419833179
93.069931 0.3231510658016682
97.065407 0.2061909175162187
101.216843 0.17783132530120482
107.085777 0.2383317886932345
120.745522 0.1785356811862836
135.116531 0.8325857275254865
136.037445 0.16815569972196479
153.126831 0.6975718257645969
182.180725 0.17227062094531975
208.443436 0.8372937905468026
END IONS

BEGIN IONS
CHARGE=1+
PRECURSORTYPE=M+H
FORMULA=C6H13NO2
ONTOLOGY=
INCHIKEY=LRQKBLKVPFOOQJ-YFKPBYRVSA-N
INCHI=InChI=1S/C6H13NO2/c1-2-3-4-5(7)6(8)9/h5H,2-4,7H2,1H3,(H,8,9)/t5-/m0/s1
SMILES=CCCC[C@H](N)C(=O)O
IONMODE=positive
INSTRUMENTTYPE=LC-ESI-Orbitrap
INSTRUMENT=Orbitrap
COMMENT=DB#=CCMSLIB00010126799; origin=GNPS
NUM_PEAKS=9
COMPOUND_NAME=L-Norleucine
PRECURSOR_MZ=132.102
COLLISION_ENERGY=102040
PARENT_MASS=131.09472354800926
63.822498 0.0036015212782476626
66.7584 0.006285808740736861
69.070396 0.054100395401817276
80.741798 0.0037419676334153815
82.420303 0.00476119442522716
86.096901 1.0
102.535004 0.003866401422006337
104.310997 0.004829623611380241
132.102997 0.006521524727342952
END IONS

BEGIN IONS
CHARGE=1+
PRECURSORTYPE=M+H
FORMULA=C20H16BrN5O2S
ONTOLOGY=
INCHIKEY=QJDFVSQDJWSMQF-UHFFFAOYSA-N
INCHI=InChI=1S/C20H16BrN5O2S/c1-12-5-7-15(8-6-12)26-18-17(19(28)23-11-22-18)25-20(26)29-10-16(27)24-14-4-2-3-13(21)9-14/h2-9,11H,10H2,1H3,(H,24,27)(H,22,23,28)
SMILES=Cc1ccc(-n2c(SCC(O)=Nc3cccc(Br)c3)nc3c(O)ncnc32)cc1
IONMODE=positive
INSTRUMENTTYPE=LC-ESI-Orbitrap
INSTRUMENT=Orbitrap
COMMENT=DB#=CCMSLIB00010113816; origin=GNPS
NUM_PEAKS=21
COMPOUND_NAME=N-(3-bromophenyl)-2-[9-(4-methylphenyl)-6-oxohydropurin-8-ylthio]acetamide
PRECURSOR_MZ=470.028
COLLISION_ENERGY=102040
PARENT_MASS=469.02072354800924
67.885384 0.0005062134166030865
74.7472 0.0005123087910761339
90.903084 0.0005289595701244587
92.368637 0.0006966567019683005
109.166183 0.0004782638946291128
118.643631 0.0006483397091941439
212.08165 0.006940550177419997
213.089478 0.0025043069024020532
230.037704 0.00574214008895084
244.05336 0.0629246320326498
257.048553 0.023318524051158328
262.06485 0.00487406956338684
271.064148 0.26921618836312733
299.059052 1.0
308.151489 0.0004952120090175862
407.540131 0.0004940226676569915
452.017853 0.002326797704333306
470.02713 0.20316566989949472
488.784912 0.0006455150234627317
558.664001 0.0006380816399590153
795.942139 0.000563153134241554
END IONS

BEGIN IONS
CHARGE=1+
PRECURSORTYPE=M+H
FORMULA=C23H38N2O9
ONTOLOGY=
INCHIKEY=ZZHGKGQIPZGFLE-UHFFFAOYSA-N
INCHI=InChI=1S/C23H38N2O9/c1-10(2)9-12(20(28)29)24-18(26)13(11(3)4)25-19(27)16-14-15(32-22(5,6)31-14)17-21(30-16)34-23(7,8)33-17/h10-17,21H,9H2,1-8H3,(H,24,26)(H,25,27)(H,28,29)
SMILES=CC(C)CC(N=C(O)C(N=C(O)C1OC2OC(C)(C)OC2C2OC(C)(C)OC12)C(C)C)C(=O)O
IONMODE=positive
INSTRUMENTTYPE=LC-ESI-Orbitrap
INSTRUMENT=Orbitrap
COMMENT=DB#=CCMSLIB00010109741; origin=GNPS
NUM_PEAKS=120
COMPOUND_NAME="4-methyl-2-{3-methyl-2-[(4,4,11,11-tetramethyl-3,5,8,10,12-pentaoxatricyclo[7. 3.0.0<2,6>]dodec-7-yl)carbonylamino]butanoylamino}pentanoic acid "
PRECURSOR_MZ=487.265
COLLISION_ENERGY=102040
PARENT_MASS=486.2577235480092
55.054741 0.004232322692567279
59.049702 0.005978517431145198
69.033989 0.0053252047324413064
69.07003 0.000832339778421655
70.065521 0.002937950099094552
71.009163 0.0010568043393985847
71.013237 0.019271107922356704
71.049393 0.0006223403332013888
71.953163 0.0005963031248393946
72.081253 0.10081130579833314
73.065208 0.0007509947745194774
74.023918 0.0006752656390875337
74.096268 0.0006589285671741256
74.431793 0.0005942609908502187
82.065208 0.0040502324118657515
83.049492 0.006154991843376491
84.044678 0.003937064153298914
85.028923 0.005004759873973104
86.096817 0.017586347381286498
87.044533 0.0007685230912599048
95.013168 0.0008895195301185833
95.049187 0.0013983512490882723
95.085793 0.005771921542573558
97.028618 0.04718231457508467
97.06485 0.003137738874368938
98.023659 0.0007540579755032414
98.059914 0.007047574574478839
99.043938 0.0009335955887182989
100.051697 0.0034481432407236913
104.289589 0.0006505898533849902
109.06488 0.001584695975600583
110.060066 0.0010874363492362248
111.044151 0.004824711727260753
111.080101 0.0012797372998836324
112.039551 0.006972015616879327
112.075607 0.002983898113851012
112.111954 0.003954932825704204
113.023003 0.0047350280095694395
113.060043 0.004477548949100831
115.039124 0.007377209035898333
121.028526 0.001047784914279724
121.064537 0.0007018133809468219
123.007584 0.0008132798611893456
123.043983 0.0075718924761997795
123.080452 0.004356892865907016
124.076202 0.0011081980447928477
125.05983 0.006277860238391914
127.076019 0.0008599085872755312
128.070648 0.012939131133251625
130.052841 0.0007681827355950421
130.085724 0.003365777169826926
132.101852 0.009937874880492617
135.044312 0.005278235650690259
137.059906 0.005813444933686804
138.054916 0.005974603340999278
138.091248 0.0025654308239023613
140.034317 0.04646671678971091
140.070709 0.002307781585601322
141.018112 0.0009569099517613916
142.086243 0.003315574709259682
143.081635 0.0014311955707475197
151.075638 0.011446501364996394
152.070251 0.002983387580353718
153.054642 0.013181294188801413
154.085571 0.000820597507983893
155.070465 0.0021166718797809335
156.101929 0.0006463354075742069
157.979828 0.0009124935374968134
163.038803 0.009211045358178389
165.054062 0.0010838626147551668
166.08638 0.014380367196112593
169.085678 0.005784004168676183
170.081757 0.0013076464644023711
171.06546 0.013374275850778546
176.070938 0.0008228098198055004
177.090836 0.0009303622099021035
180.065598 0.00810505962520715
181.050018 0.009909114826811722
181.067505 0.000982606804458523
182.080887 0.002328883636822807
184.096222 0.006747210700237535
189.091415 0.000813960572519071
192.101578 0.0011301509851764898
194.081268 0.04803184231458189
198.075851 0.0011871605590409867
199.060303 0.00563305643130959
199.077316 0.0006162139312338608
202.087128 0.0009136847823238328
203.107452 0.0009846489384476992
206.118393 0.005194848512798904
210.112457 0.003966504918309535
211.144653 0.0048065026991906
212.091812 0.22851700570061703
217.086121 0.0013867791564829415
224.128342 0.0024713224825678335
228.122726 0.0015104984406605214
229.107971 0.0011286193846846077
230.103104 0.0012462122668946596
234.112625 0.015570420778304913
241.515167 0.0007047064040981545
242.138611 0.002521354765302646
252.123062 0.12009977185959785
253.119812 0.0009099408700103434
257.150909 0.0010613991408742307
268.155396 0.0008454434715188678
270.133575 0.35875273943765756
292.152435 0.0009831173379558171
297.697906 0.0006642040799794969
307.16391 0.00089292308676721
310.164764 0.010435474862521839
321.040009 0.0009480607044749622
322.962372 0.0008867966847996819
328.175385 0.4784091980437718
353.170441 0.0031966204043901796
356.170288 1.0
371.180664 0.0008592278759458059
429.221954 0.0012441701329054837
469.255371 0.006214043551230165
487.103882 0.013525563943810003
487.264954 0.08495804946252736
END IONS

BEGIN IONS
CHARGE=1+
PRECURSORTYPE=M+H
FORMULA=C21H21N3O4
ONTOLOGY=
INCHIKEY=PUIXISQSCVEHKU-UHFFFAOYSA-N
INCHI=InChI=1S/C21H21N3O4/c25-18-9-16-19-13-8-17-21(4-5-22(17)10-11(13)3-6-28-16)14-7-12(24(26)27)1-2-15(14)23(18)20(19)21/h1-3,7,13,16-17,19-20H,4-6,8-10H2
SMILES=O=C1CC2OCC=C3CN4CCC56c7cc([N+](=O)[O-])ccc7N1C5C2C3CC46
IONMODE=positive
INSTRUMENTTYPE=LC-ESI-Orbitrap
INSTRUMENT=Orbitrap
COMMENT=DB#=CCMSLIB00010105432; origin=GNPS
NUM_PEAKS=42
COMPOUND_NAME="4-nitro-12-oxa-8,17-diazaheptacyclo[15.5.2.0<1,18>.0<2,7>.0<8,22>.0<11,21>.0<1 5,20>]tetracosa-2(7),3,5,14-tetraen-9-one "
PRECURSOR_MZ=380.16
COLLISION_ENERGY=102040
PARENT_MASS=379.15272354800925
56.0499 0.00038774339689898543
68.566963 0.00023820280838390988
71.049301 0.00023217973574124983
73.964378 0.00026015787962973516
76.512321 0.00024318965347514454
81.070107 0.00034098362864091504
92.392029 0.00024480875902424667
93.070137 0.0003115159076472557
94.9571 0.00022777576864769196
104.300194 0.00022311274466627773
108.080711 0.0002661809522723952
121.065201 0.0003007002825792533
121.648628 0.000260028351185807
124.075523 0.00031805709406562845
140.029739 0.00022933010997483003
155.798813 0.0002852863977518007
162.423859 0.00021547056647451554
183.067642 0.00087833237827694
189.066605 0.00045529248040752755
221.083374 0.0010290387227873692
229.060226 0.0026719775055723135
235.245575 0.00028036431688253016
241.061218 0.00027608987823290044
243.075546 0.0005431127653908287
248.079269 0.00025633679053385406
255.076492 0.0004185711665538906
261.116058 0.00033295286511736833
265.060486 0.0009609067612811503
267.076141 0.001159991979598752
279.074493 0.00048553737206475593
281.126892 0.0002688362853729228
293.091003 0.00053806115607763
307.109314 0.0003353491413300395
309.088409 0.0021911031574889718
311.102844 0.00046967013768355476
319.111572 0.0003969399164178857
334.168732 0.0012425663626029623
352.129089 0.001327148436488059
366.158752 0.001494110600711474
378.257202 0.001010127569973856
380.16037 1.0
382.079468 0.0011407570056754183
END IONS

BEGIN IONS
CHARGE=1+
PRECURSORTYPE=M+H
FORMULA=C10H11NO4
ONTOLOGY=
INCHIKEY=VGHIVGWATFYZKU-UHFFFAOYSA-N
INCHI=InChI=1S/C10H11NO4/c1-14-9-4-7(5-12)2-3-8(9)15-6-10(11)13/h2-5H,6H2,1H3,(H2,11,13)
SMILES=COc1cc(C=O)ccc1OCC(=N)O
IONMODE=positive
INSTRUMENTTYPE=LC-ESI-Orbitrap
INSTRUMENT=Orbitrap
COMMENT=DB#=CCMSLIB00010112254; origin=GNPS
NUM_PEAKS=52
COMPOUND_NAME=2-(4-formyl-2-methoxyphenoxy)acetamide
PRECURSOR_MZ=210.076
COLLISION_ENERGY=102040
PARENT_MASS=209.06872354800925
50.55534 0.0007055716066850501
50.869492 0.0007540194294506017
53.038971 0.0032096013413355218
58.029202 0.006517436665847604
59.03685 0.0009215793026618465
60.53146 0.0007047686040977757
65.038933 0.001553542338846749
79.054359 0.008407972423820484
81.033524 0.003037758787658814
81.070107 0.0070356410021686425
82.390091 0.0009949202056329025
83.218513 0.0008129062858507197
91.054359 0.016677293067571597
92.368446 0.0008327136830034867
93.033417 0.008607117065464518
94.041191 0.011117035485755001
95.04908 0.0014622677114265663
99.306847 0.0008450263893416931
105.033432 0.024662618462956688
107.048897 0.010765588020057934
107.469276 0.0007633877929688023
109.064774 0.06056914682045772
111.044197 0.007967391670935964
119.047981 0.0007663321357888081
121.027672 0.0008961508873981591
121.064781 0.003308102992041174
122.035942 0.014704583378167645
125.059639 0.08403903877378292
133.028366 0.017719322758324593
135.043472 0.006034832110895728
137.059662 0.3429530366613508
138.032333 0.000860551106028997
140.504425 0.0007569637722706076
144.169724 0.0009330890064127786
149.023071 0.004852009299840631
150.031036 0.07400150643285372
151.038834 0.0015982428162050204
152.046921 0.008607920068051793
152.070496 0.0034167760088523007
152.566193 0.001263926072369805
153.054504 1.0
153.545868 0.0009882285174056165
155.06987 0.00726289073436728
165.054535 0.3448218913494673
168.91713 0.0011638184164896046
182.079437 0.001147223029685935
183.064987 0.11311629779404482
186.927017 0.003519292672494324
186.96463 0.0030441828083570084
193.049423 0.009443042758817102
200.090042 0.0029183790696840294
210.075821 0.09549253234360587
END IONS

BEGIN IONS
CHARGE=1+
PRECURSORTYPE=M+H
FORMULA=C3H7NO3
ONTOLOGY=
INCHIKEY=MTCFGRXMJLQNBG-REOHCLBHSA-N
INCHI=InChI=1S/C3H7NO3/c4-2(1-5)3(6)7/h2,5H,1,4H2,(H,6,7)/t2-/m0/s1
SMILES=N[C@@H](CO)C(=O)O
IONMODE=positive
INSTRUMENTTYPE=LC-ESI-Orbitrap
INSTRUMENT=Orbitrap
COMMENT=DB#=CCMSLIB00010102884; origin=GNPS
NUM_PEAKS=10
COMPOUND_NAME=L-serine
PRECURSOR_MZ=106.05
COLLISION_ENERGY=102040
PARENT_MASS=105.04272354800923
60.045101 1.0
64.928001 0.008116346403934098
65.646004 0.00586434487381545
66.754204 0.004832878259396737
70.029503 0.02972104760018258
77.930397 0.005386964968034013
88.039803 0.1330927586000993
99.8022 0.005807905502972679
106.050003 0.05263206468698596
107.033997 0.005883263478967327
END IONS

BEGIN IONS
CHARGE=1+
PRECURSORTYPE=M+H
FORMULA=C3H7NO3
ONTOLOGY=
INCHIKEY=MTCFGRXMJLQNBG-REOHCLBHSA-N
INCHI=InChI=1S/C3H7NO3/c4-2(1-5)3(6)7/h2,5H,1,4H2,(H,6,7)/t2-/m0/s1
SMILES=N[C@@H](CO)C(=O)O
IONMODE=positive
INSTRUMENTTYPE=LC-ESI-Orbitrap
INSTRUMENT=Orbitrap
COMMENT=DB#=CCMSLIB00010126499; origin=GNPS
NUM_PEAKS=10
COMPOUND_NAME=L-serine
PRECURSOR_MZ=106.05
COLLISION_ENERGY=102040
PARENT_MASS=105.04272354800923
60.045101 1.0
64.928001 0.008116346403934098
65.646004 0.00586434487381545
66.754204 0.004832878259396737
70.029503 0.02972104760018258
77.930397 0.005386964968034013
88.039803 0.1330927586000993
99.8022 0.005807905502972679
106.050003 0.05263206468698596
107.033997 0.005883263478967327
END IONS

BEGIN IONS
CHARGE=1+
PRECURSORTYPE=M+H
FORMULA=C20H18N4O2S
ONTOLOGY=
INCHIKEY=VXPFXXTZSHHVOO-UHFFFAOYSA-N
INCHI=InChI=1S/C20H18N4O2S/c1-13-6-8-15(9-7-13)24-18-17(19(25)22-12-21-18)23-20(24)27-11-14-4-3-5-16(10-14)26-2/h3-10,12H,11H2,1-2H3,(H,21,22,25)
SMILES=COc1cccc(CSc2nc3c(O)ncnc3n2-c2ccc(C)cc2)c1
IONMODE=positive
INSTRUMENTTYPE=LC-ESI-Orbitrap
INSTRUMENT=Orbitrap
COMMENT=DB#=CCMSLIB00010108006; origin=GNPS
NUM_PEAKS=21
COMPOUND_NAME=8-[(3-methoxyphenyl)methylthio]-9-(4-methylphenyl)hydropurin-6-one
PRECURSOR_MZ=379.122
COLLISION_ENERGY=102040
PARENT_MASS=378.11472354800924
53.039082 0.0035093789714223615
60.539532 0.0006393895669130898
64.705681 0.0005693944269529965
65.039078 0.004289324816691973
78.046692 0.002644722026847947
89.836708 0.0006392009007676449
91.054314 0.05021519260549456
93.069748 0.0010608697358372098
98.119072 0.0005835443878613711
99.905441 0.0005580744582262967
106.041107 0.0032286437470002084
121.064697 1.0
135.699432 0.00063222025338618
136.215332 0.0008323950337033202
144.982498 0.0007086300422914032
146.896652 0.0006707081470569591
162.090057 0.0009925725911861215
209.942276 0.0012950044223344493
257.051453 0.0009105028179175484
271.062866 0.0011504861549235827
379.121582 0.9231938235231969
END IONS

BEGIN IONS
CHARGE=1+
PRECURSORTYPE=M+H
FORMULA=C16H12BrNO2
ONTOLOGY=
INCHIKEY=STAPMTFRDQEWMH-UHFFFAOYSA-N
INCHI=InChI=1S/C16H12BrNO2/c17-13-5-7-14(8-6-13)18-16(19)12-9-11-3-1-2-4-15(11)20-10-12/h1-9H,10H2,(H,18,19)
SMILES=O=C(Nc1ccc(Br)cc1)C1=Cc2ccccc2OC1
IONMODE=positive
INSTRUMENTTYPE=LC-ESI-Orbitrap
INSTRUMENT=Orbitrap
COMMENT=DB#=CCMSLIB00010108853; origin=GNPS
NUM_PEAKS=47
COMPOUND_NAME=2H-chromen-3-yl-N-(4-bromophenyl)carboxamide
PRECURSOR_MZ=330.012
COLLISION_ENERGY=102040
PARENT_MASS=329.0047235480092
62.661739 0.0010710105904829061
89.368889 0.0009884637258996383
89.942551 0.0010028044947467316
92.373619 0.0012668845064432025
103.054024 0.019062379546286055
104.281509 0.001289270096838665
105.069763 0.006196611241343947
107.049103 0.026038638928121968
112.154343 0.0010409299533890035
115.054092 0.04747144263237754
122.995956 0.0010202932372431865
131.049042 0.07889696402425758
133.064758 0.029945274226980092
145.052124 0.003617371497966759
157.052246 0.00549146514388688
158.060272 0.00580276476032378
159.043961 0.7980599388173832
169.959732 0.008740523724878296
170.968231 0.0019171159524614006
171.975494 0.0020237972816897765
175.887268 0.001055970271935955
177.054474 0.040067758383928266
183.975739 0.017121828678879406
197.955109 0.009372566878700181
200.070541 0.002394908397464552
205.089081 0.0016463902186162767
207.975082 0.011612525017646142
222.091003 0.001557197631884356
223.098953 0.018191440169962596
223.970245 0.032445814629123236
231.572754 0.0010622662192346787
233.083282 0.01279126626190721
234.090897 0.05417802560491811
235.970139 0.2628113783157781
236.07016 0.02838737704539588
248.069412 0.002158110824062551
249.076889 0.0011696470981629125
250.085846 0.0313576650709938
251.093674 0.11179888505768837
253.980713 0.0023896617747156154
276.001282 0.04309261128611513
276.997528 0.0064064761513014075
284.005646 0.0018342193130282038
302.016541 0.01279161603675714
312.001312 0.04680372244386288
330.011841 1.0
626.100891 0.0011444633089680173
END IONS

BEGIN IONS
CHARGE=1+
PRECURSORTYPE=M+H
FORMULA=C9H8O3
ONTOLOGY=
INCHIKEY=PMOWTIHVNWZYFI-UHFFFAOYSA-N
INCHI=InChI=1S/C9H8O3/c10-8-4-2-1-3-7(8)5-6-9(11)12/h1-6,10H,(H,11,12)/b6-5+
SMILES=O=C(O)C=Cc1ccccc1O
IONMODE=positive
INSTRUMENTTYPE=LC-ESI-Orbitrap
INSTRUMENT=Orbitrap
COMMENT=DB#=CCMSLIB00010108020; origin=GNPS
NUM_PEAKS=18
COMPOUND_NAME=2-Hydroxycinnamic acid
PRECURSOR_MZ=165.055
COLLISION_ENERGY=102040
PARENT_MASS=164.04772354800926
53.039051 0.011077591888455739
58.778439 0.0032763536962786433
68.210533 0.003030732450346186
69.788879 0.0027356289988465384
91.054413 0.09332238688683651
92.354286 0.003966156698142965
93.070122 0.03188938642486222
95.04924 0.04813155191778289
103.054253 0.6559431708450002
104.262749 0.0042036712848654775
119.049316 0.01450449782720477
121.057426 0.0030745294663375713
121.064873 0.1375732705126904
123.044113 1.0
147.044113 0.9590722149624925
165.054489 0.03235683534553951
168.181198 0.0034830208654879936
177.281555 0.0029096589686392308
END IONS

BEGIN IONS
CHARGE=1+
PRECURSORTYPE=M+H
FORMULA=C23H22F3NO6
ONTOLOGY=
INCHIKEY=VGAYRQZKEXRRFB-UHFFFAOYSA-N
INCHI=InChI=1S/C23H22F3NO6/c1-2-31-17-5-3-4-6-18(17)32-21-19(29)14-7-8-16(28)15(13-27-9-11-30-12-10-27)20(14)33-22(21)23(24,25)26/h3-8,28H,2,9-13H2,1H3
SMILES=CCOc1ccccc1Oc1c(C(F)(F)F)oc2c(CN3CCOCC3)c(O)ccc2c1=O
IONMODE=positive
INSTRUMENTTYPE=LC-ESI-Orbitrap
INSTRUMENT=Orbitrap
COMMENT=DB#=CCMSLIB00010107889; origin=GNPS
NUM_PEAKS=64
COMPOUND_NAME=3-(2-ethoxyphenoxy)-7-hydroxy-8-(morpholin-4-ylmethyl)-2-(trifluoromethyl)chro men-4-one
PRECURSOR_MZ=466.147
COLLISION_ENERGY=102040
PARENT_MASS=465.1397235480092
65.039124 0.001798285804028645
66.187668 0.00068285890591708
70.065468 0.02104051275012088
75.624397 0.0008319946973940808
82.391876 0.0009598607076654065
85.021637 0.0008510385712642783
86.06015 0.009304539985333744
87.757362 0.0008023159329210458
88.075844 0.4488519882917274
93.033386 0.0009465052636525408
94.041389 0.001217323989468985
107.114662 0.000821112483753968
109.028343 0.0032510613249837074
110.036186 0.001678828777024679
111.044434 0.0019447010420956176
121.028343 0.012031276471293833
121.064751 0.0014186449418110724
135.043884 0.0009615919689263336
145.06337 0.0010157557140896224
147.043961 0.03359586673740105
148.052124 0.004219083692879199
149.0233 0.013284956947242287
149.060486 0.0010053681465240602
150.031113 0.0046877608485158765
159.043762 0.0014122145428419148
161.060303 0.0011653861516411738
167.03392 0.00917766326721152
173.059937 0.0045116668459758685
176.505722 0.0007587870783605945
179.075897 0.0007704112611125332
201.054779 0.006922819136372686
202.063828 0.0015363707075541112
203.031738 0.001399601067940875
213.051117 0.0010338102958107188
215.030304 0.0028098370264845875
221.041077 0.0013961385454190208
222.04866 0.0034402634484993057
223.020416 0.004225266768811081
225.052811 0.0014601952120733214
229.04686 0.005076058017038084
231.025314 0.003006953487192995
241.047379 0.004865586112316811
242.054352 0.006397010359125416
243.026932 0.004764183667033941
243.06163 0.001249475984314773
249.034927 0.025021177035066698
250.015686 0.000989044826063891
250.042953 0.022036235298191202
251.051788 0.0014562380434769166
253.046616 0.0014930891760309352
269.041351 0.03218884597834192
270.049316 0.023998496275933368
271.057098 0.013140272970436241
282.051666 0.0050508310672360045
310.083252 0.011886345171450513
331.041016 0.0036168520971138637
334.045074 0.011941250885725627
335.051941 0.011240090075050176
339.063568 0.0013068549289626406
351.04541 0.010175859045654595
351.086609 0.0009875608878402392
379.034027 0.0028476774511877073
379.077911 0.2235716167135962
466.146454 1.0
END IONS

BEGIN IONS
CHARGE=1+
PRECURSORTYPE=M+H
FORMULA=C6H7NO5
ONTOLOGY=
INCHIKEY=JKCBZBFTTXFZGH-UHFFFAOYSA-N
INCHI=InChI=1S/C6H7NO5/c8-4(1-2-5(9)10)7-3-6(11)12/h1-2H,3H2,(H,7,8)(H,9,10)(H,11,12)/b2-1-
SMILES=O=C(O)C=CC(O)=NCC(=O)O
IONMODE=positive
INSTRUMENTTYPE=LC-ESI-Orbitrap
INSTRUMENT=Orbitrap
COMMENT=DB#=CCMSLIB00010114200; origin=GNPS
NUM_PEAKS=37
COMPOUND_NAME=(2Z)-3-[N-(carboxymethyl)carbamoyl]prop-2-enoic acid
PRECURSOR_MZ=174.04
COLLISION_ENERGY=102040
PARENT_MASS=173.03272354800924
53.003078 0.0008297153507930168
54.01049 0.0006929063335874998
54.077381 0.0007136546205570569
55.018349 0.0006913934376626363
56.01379 0.000923514898134556
71.013191 0.009989003407906134
72.081146 0.001081936714266695
72.937553 0.002663777467706156
73.945473 0.0006803709102100591
76.039688 0.20750469862248666
82.029068 0.005762404449815945
84.930206 0.0009611211682668783
90.948036 0.0007348351635051465
99.007767 0.4162331139201986
110.02372 1.0
113.963814 0.0024508913982789295
117.018387 0.007109746334901558
119.943443 0.0011348880716369187
120.950684 0.000667403230854086
126.031677 0.000750180250743048
128.034286 0.026233399209144463
130.96666 0.0006762644784140009
131.97435 0.0007830317051115133
132.080795 0.0009144375225853749
132.951752 0.0011973490605348563
136.202728 0.0007689833858092091
138.018631 0.027868839703921944
146.044998 0.0007637963140668198
150.962112 0.0011627685822522612
156.029099 0.14491360067501094
159.969971 0.0008707796687535985
165.23613 0.0006120744656019337
173.979767 0.0008271218149218222
174.022537 0.001301522751361174
174.039627 0.024213250893473107
174.056046 0.0012727777287887669
174.127106 0.005512344366234929
END IONS

BEGIN IONS
CHARGE=1+
PRECURSORTYPE=M+H
FORMULA=C21H25N3O8S
ONTOLOGY=
INCHIKEY=CVGAINFJTLYTKX-UHFFFAOYSA-N
INCHI=InChI=1S/C21H25N3O8S/c1-11-8-13-14(24(3)21(26)23(13)2)10-16(11)33(27,28)22-17-12(20(25)32-7)9-15(29-4)18(30-5)19(17)31-6/h8-10,22H,1-7H3
SMILES=COC(=O)c1cc(OC)c(OC)c(OC)c1NS(=O)(=O)c1cc2c(cc1C)n(C)c(=O)n2C
IONMODE=positive
INSTRUMENTTYPE=LC-ESI-Orbitrap
INSTRUMENT=Orbitrap
COMMENT=DB#=CCMSLIB00010109269; origin=GNPS
NUM_PEAKS=40
COMPOUND_NAME="methyl 3,4,5-trimethoxy-2-{[(1,3,6-trimethyl-2-oxo(3-hydrobenzimidazol-5-yl))s ulfonyl]amino}benzoate "
PRECURSOR_MZ=480.144
COLLISION_ENERGY=102040
PARENT_MASS=479.13672354800923
50.89846 0.0007140041940370323
51.331718 0.000654749713746769
64.774429 0.0007496552298963194
64.988083 0.0007250683086140524
82.40992 0.0008939804578232264
84.897301 0.0008534120377074859
92.390251 0.0008708687518178955
104.298683 0.0009220095480850108
115.134323 0.0008398892310022392
138.054855 0.0011290314252816985
154.679382 0.0007061363792267069
161.070557 0.0030229619716547218
165.065567 0.0009515138536237311
166.049301 0.005543121403087084
170.093979 0.0008271040319354603
175.0867 0.003969312571809177
176.033661 0.0009087326105925866
178.049728 0.0012118893500029382
181.048904 0.000920288463595252
184.06012 0.0016195405048629243
188.751175 0.0007260517854653432
191.081497 0.011657642856774054
194.044601 0.042147883938913305
196.060104 0.012721518940657744
198.075516 0.0014941472063233628
208.060928 0.004821003525026904
208.084213 0.005127848302629596
209.067551 0.0051030155121345065
210.075684 0.005908974791767217
211.048096 0.0014466944482485874
212.054749 0.017722990467896486
226.070694 0.32062722219667916
240.08577 0.0013581815316324264
241.094101 1.0
354.107727 0.0012664723152495708
369.13147 0.0030411562934035993
384.101379 0.0012568834159494867
384.152527 0.008664676929083697
448.116058 0.008414382070430219
480.142578 0.059416999839939144
END IONS

BEGIN IONS
CHARGE=1+
PRECURSORTYPE=M+H
FORMULA=C25H20FN3O3
ONTOLOGY=
INCHIKEY=AJWDAMKOZTXGIF-UHFFFAOYSA-N
INCHI=InChI=1S/C25H20FN3O3/c26-18-10-12-19(13-11-18)28-23(30)16-29-22-9-5-4-8-20(22)21(14-24(29)31)25(32)27-15-17-6-2-1-3-7-17/h1-14H,15-16H2,(H,27,32)(H,28,30)
SMILES=O=C(Cn1c(=O)cc(C(O)=NCc2ccccc2)c2ccccc21)Nc1ccc(F)cc1
IONMODE=positive
INSTRUMENTTYPE=LC-ESI-Orbitrap
INSTRUMENT=Orbitrap
COMMENT=DB#=CCMSLIB00010110840; origin=GNPS
NUM_PEAKS=29
COMPOUND_NAME=N-(4-fluorophenyl)-2-{2-oxo-4-[N-benzylcarbamoyl]hydroquinolyl}acetamide
PRECURSOR_MZ=430.156
COLLISION_ENERGY=102040
PARENT_MASS=429.14872354800923
50.161942 0.0010208351411024018
51.440418 0.001122263037630521
54.46909 0.0009163219853643017
65.290787 0.0010131219930774496
82.029213 0.0015954646689613282
91.05439 0.2922507930080313
92.391121 0.001129976185655473
97.768303 0.0010956526769444364
158.06076 0.0013706264040339764
173.456528 0.0010439745851772578
180.080765 0.014412402742024122
193.154587 0.0011438598521003867
199.05011 0.002390690230333883
204.080704 0.0014273180420173739
206.059326 0.0014654981247408864
217.090302 0.0014867092818095045
218.096603 0.03999382948158004
219.02037 0.0016047204465912707
233.105927 0.011892517282272294
261.101715 0.009494885218715953
269.128693 0.0013791108668614236
279.11319 0.014177537384664334
291.082092 0.003154677542205382
291.112366 0.19645542282513329
319.107269 1.0
332.138702 0.011120045507573346
430.040955 0.001848455924179755
430.103363 0.004156615470646651
430.607819 0.012728236870775846
END IONS

BEGIN IONS
CHARGE=1+
PRECURSORTYPE=M+H
FORMULA=C19H19NO4
ONTOLOGY=
INCHIKEY=JBZRVLDDCKRMOY-UHFFFAOYSA-N
INCHI=InChI=1S/C19H19NO4/c1-13(21)20-16-8-6-15(7-9-16)17(22)10-4-14-5-11-18(23-2)19(12-14)24-3/h4-12H,1-3H3,(H,20,21)/b10-4+
SMILES=COc1ccc(C=CC(=O)c2ccc(N=C(C)O)cc2)cc1OC
IONMODE=positive
INSTRUMENTTYPE=LC-ESI-Orbitrap
INSTRUMENT=Orbitrap
COMMENT=DB#=CCMSLIB00010110328; origin=GNPS
NUM_PEAKS=91
COMPOUND_NAME="N-{4-[(2E)-3-(3,4-dimethoxyphenyl)prop-2-enoyl]phenyl}acetamide "
PRECURSOR_MZ=326.139
COLLISION_ENERGY=102040
PARENT_MASS=325.13172354800923
56.96389 0.00024173681754048135
61.03426 0.00024907470298100046
65.039101 0.0004964957979754051
66.747871 0.0003649650627082599
72.191803 0.000245870837506971
79.054649 0.00026492177951921073
81.033798 0.00173384242411214
82.407127 0.00029354986778715143
91.054207 0.00041171393849598017
92.04966 0.0005062796452294305
94.065086 0.00029134505713835696
98.060364 0.00029172400896861853
103.05423 0.0005042815355789605
104.290489 0.00027415442411103755
105.069847 0.001533859208233204
106.06514 0.0030156986652214134
107.049347 0.000623341310613862
118.065048 0.0011494298015160553
118.661812 0.00036348370555360106
119.049393 0.0005202664127827205
120.044273 0.09358566840006124
121.028221 0.03141145501104541
124.051979 0.001670626368791236
127.855797 0.00025989205522664835
130.065247 0.00036999478700082227
131.049667 0.0004244949502257106
132.056824 0.0006049793719293705
133.064957 0.0022310961257480683
135.080002 0.001516117372543686
136.075317 0.0018749158554685987
136.221359 0.0003381628332588521
137.05954 0.0004960134956459813
139.075317 0.004530231330111279
146.05983 0.13206946696911157
147.043823 0.021105722186417018
147.054169 0.0006903468842373814
148.051804 0.004859574920774952
148.0755 0.0017710486038105466
149.059525 0.0004765491516370926
154.589767 0.0002772204889195174
159.043976 0.0015401635886821007
159.091904 0.001435917385193787
160.051727 0.00412461507106587
160.075577 0.0011390947515998312
161.059952 0.0012399992889485657
162.054672 0.0823212563452039
163.075058 0.03317740499023062
165.054611 0.0010774289537663609
167.070297 0.0014818050068218219
176.04657 0.009496842917851925
177.054855 0.00033706042793445483
179.35408 0.00029258526312830386
182.096558 0.0005810709564565055
187.085114 0.00034853233334146357
188.070328 0.2083443746116605
191.069901 0.2859768599610382
201.101227 0.0034331657815040917
210.090759 0.0015759573115586233
210.480865 0.0002779439424136531
212.063782 0.00026154566321324416
222.090698 0.0010429787873789474
223.099136 0.0004242882492273861
224.084885 0.00029882074324442574
224.107239 0.00198612099256717
226.053726 0.00026330262169900226
229.096283 0.0034193168146163513
241.108887 0.000346568673857381
242.117157 0.0016407580745333484
251.093002 0.001854039054637826
252.101135 0.001392027873216222
253.083099 0.00038332700139275135
256.134003 0.0005618477636123287
264.10321 0.000345569619032146
266.116974 0.007914787926842729
266.146576 0.0004042727025562988
267.099731 0.000640669744306731
268.096527 0.0006155900231766939
269.105499 0.0010329882391265973
283.11969 0.0017956804727775474
284.12738 0.04643668837991754
285.108734 0.004527234165635574
293.103485 0.0005715627105335793
294.112732 0.0022040871953003358
295.118683 0.001130309959171041
296.093048 0.0006303002442241195
308.126526 0.003818904294543962
310.106964 0.0006133852125278995
311.11319 0.0025463495983592903
324.622498 0.0003736465046378881
326.137787 1.0
327.664642 0.0004120928903262417
END IONS

BEGIN IONS
CHARGE=1+
PRECURSORTYPE=M+H
FORMULA=C18H16O4
ONTOLOGY=
INCHIKEY=AXYJXSKPTBZVAC-UHFFFAOYSA-N
INCHI=InChI=1S/C18H16O4/c1-3-21-13-7-5-12(6-8-13)18-17(20)16(19)14-9-4-11(2)10-15(14)22-18/h4-10,20H,3H2,1-2H3
SMILES=CCOc1ccc(-c2oc3cc(C)ccc3c(=O)c2O)cc1
IONMODE=positive
INSTRUMENTTYPE=LC-ESI-Orbitrap
INSTRUMENT=Orbitrap
COMMENT=DB#=CCMSLIB00010106254; origin=GNPS
NUM_PEAKS=34
COMPOUND_NAME=2-(4-ethoxyphenyl)-3-hydroxy-7-methylchromen-4-one
PRECURSOR_MZ=297.112
COLLISION_ENERGY=102040
PARENT_MASS=296.10472354800925
52.385948 0.000343896697240921
62.014931 0.0003217526729498121
82.400063 0.0004537310577248211
92.380417 0.00040578924513457034
109.101044 0.00138189783588665
109.578842 0.00031488802541956834
119.049011 0.004748232408621023
121.028587 0.003286062484679103
135.04422 0.0035850068126090733
135.080276 0.0007355137668291817
137.096542 0.00030791265776786906
143.97406 0.0003558544703581198
145.70575 0.00036050471545925265
147.043701 0.0038344592462484146
149.059357 0.0007871093434274653
149.132263 0.00048285044966762925
165.054352 0.0006008780991392397
195.079361 0.0006736212189355324
213.091049 0.0017404095891597028
215.491501 0.00039582443420357134
223.075485 0.0017273446148279488
232.926987 0.001643197322521735
240.078964 0.0030276417212018623
241.085144 0.0041055021035715875
251.071518 0.0011909056263758359
268.072662 0.011489648443684757
268.105713 0.0004903794179266063
269.080261 0.18253983543889787
279.231506 0.0039049879636155966
282.086304 0.0006286688496245813
286.283173 0.0003877418653373166
295.79248 0.0015567249076649547
297.111481 1.0
298.438965 0.0016275857853965032
END IONS

BEGIN IONS
CHARGE=1+
PRECURSORTYPE=M+H
FORMULA=C21H30O2
ONTOLOGY=
INCHIKEY=RJKFOVLPORLFTN-UHFFFAOYSA-N
INCHI=InChI=1S/C21H30O2/c1-13(22)17-6-7-18-16-5-4-14-12-15(23)8-10-20(14,2)19(16)9-11-21(17,18)3/h12,16-19H,4-11H2,1-3H3/t16-,17+,18-,19-,20-,21+/m0/s1
SMILES=CC(=O)C1CCC2C3CCC4=CC(=O)CCC4(C)C3CCC12C
IONMODE=positive
INSTRUMENTTYPE=LC-ESI-Orbitrap
INSTRUMENT=Orbitrap
COMMENT=DB#=CCMSLIB00010105327; origin=GNPS
NUM_PEAKS=107
COMPOUND_NAME=progesterone
PRECURSOR_MZ=315.232
COLLISION_ENERGY=102040
PARENT_MASS=314.22472354800925
53.13625 0.0004929492755621996
57.52594 0.0004032316543104696
60.44556 0.0004360759815832899
60.883801 0.0003992505237319459
62.199848 0.0004332323168843445
66.738708 0.0005749890021267769
67.054604 0.002017580103901821
68.867043 0.0004286824533660317
69.070236 0.001894875972142323
69.966423 0.00048612448028473044
71.049507 0.0018156799102766914
77.652069 0.00044503352538496823
79.021057 0.0004397727456919191
79.054207 0.005367132752789707
81.070122 0.008975743255751525
83.049301 0.014460034994137786
85.064949 0.011848839884331094
91.054512 0.0009522011244418952
93.069939 0.004586546792929171
95.085548 0.008554169964132857
97.064774 0.37294747836610986
99.08017 0.0005390166436851165
105.06987 0.003108267699182361
107.085289 0.00609198288455091
109.064728 0.27205681414575317
109.100906 0.004793992132717244
111.07991 0.0005165516925634471
113.096123 0.0006106769940985426
117.069969 0.0007635239716668624
119.085579 0.0056796515032038145
121.064453 0.0018183813917406896
121.100952 0.00868497854028435
123.080307 0.022807897084362146
123.116653 0.0009196411636389695
125.09597 0.0005842309123983496
131.084839 0.004576593966482862
133.100739 0.007859462678180475
135.080688 0.000782007792210008
135.116913 0.003687522198357556
137.095993 0.004437254396234533
143.084641 0.0014873788207834353
145.100937 0.00677474677876772
147.116943 0.008545496786801074
149.096252 0.0008336203064958686
149.132538 0.002218911564587161
151.111359 0.0018399932434526754
157.101013 0.002936652534601001
159.116699 0.010226386990347749
159.287689 0.00046252206328348293
161.132095 0.005806478948776783
163.111557 0.005644247877701944
163.147476 0.0006081176958694917
169.100922 0.0008259424118087158
171.116714 0.0062020327084001
173.095718 0.0008135724703683029
173.132416 0.007659837416314503
175.111282 0.001696672542625823
175.147568 0.0033920654361371204
177.126938 0.007923729500376644
179.142105 0.0006537585142875667
183.116699 0.0020839796746221976
185.132172 0.002577639866359134
187.111252 0.002584464661636603
187.147934 0.003921271436610875
189.127625 0.004958640318786188
189.163177 0.001926440650300618
191.142975 0.0034502183792305555
195.116989 0.0006189236217254845
195.245026 0.0005671689242046767
197.131912 0.002501571835662342
197.586365 0.0004591096656447484
199.14772 0.003109120798592045
201.127777 0.0010021074399083885
201.163544 0.0064170137596403784
203.14325 0.000992012430227132
205.1595 0.0009607321185387317
209.13353 0.0015559111400280214
211.147263 0.0019989541001237277
213.163712 0.006047906081717255
215.1436 0.0037126886309432235
215.179031 0.00772097620734183
219.174088 0.0025783507825338703
223.147614 0.004543038723035305
227.142838 0.0007251344982310984
227.179474 0.003568657013941635
229.159424 0.004000894048181348
231.173019 0.000844710598821756
233.18927 0.0036219757270468628
237.163788 0.001944640104373869
239.179077 0.010046240831669552
241.157349 0.004761147805444423
245.190582 0.004645837201902184
251.177322 0.0008904936004747782
253.193985 0.004888401800722234
255.177704 0.0011323472831200917
255.209915 0.011837180859065419
257.190704 0.0027779760443998433
269.190491 0.0010254254904397415
269.224396 0.0007632396051969678
271.204956 0.0011471343395546081
273.220428 0.006973376757989063
279.210205 0.017561477898042677
297.220673 0.06054005742496493
312.222168 0.0004966460396708288
313.789459 0.0006511992160585158
315.231262 1.0
316.684662 0.000744613601418875
END IONS

BEGIN IONS
CHARGE=1+
PRECURSORTYPE=M+H
FORMULA=C11H12N2
ONTOLOGY=
INCHIKEY=WUFQLZTXIWKION-UHFFFAOYSA-N
INCHI=InChI=1S/C11H12N2/c1-2-5-10-9(4-1)8-13-7-3-6-11(13)12-10/h1-2,4-5H,3,6-8H2
SMILES=c1ccc2c(c1)CN1CCCC1=N2
IONMODE=positive
INSTRUMENTTYPE=LC-ESI-Orbitrap
INSTRUMENT=Orbitrap
COMMENT=DB#=CCMSLIB00010104560; origin=GNPS
NUM_PEAKS=10
COMPOUND_NAME=Deoxypeganine
PRECURSOR_MZ=173.107
COLLISION_ENERGY=102040
PARENT_MASS=172.09972354800925
62.260559 0.00019870373853617595
97.606361 0.00017140845921921952
106.064453 0.0002181568797169277
131.93013 0.000727270130357886
149.940536 0.0009523269319839328
171.091843 0.0002897290738897755
172.099075 0.0004077162889722858
172.521164 0.000966150935192609
173.10733 1.0
173.697128 0.0009378095542696833
END IONS

BEGIN IONS
CHARGE=1+
PRECURSORTYPE=M+H
FORMULA=C11H12N2
ONTOLOGY=
INCHIKEY=WUFQLZTXIWKION-UHFFFAOYSA-N
INCHI=InChI=1S/C11H12N2/c1-2-5-10-9(4-1)8-13-7-3-6-11(13)12-10/h1-2,4-5H,3,6-8H2
SMILES=c1ccc2c(c1)CN1CCCC1=N2
IONMODE=positive
INSTRUMENTTYPE=LC-ESI-Orbitrap
INSTRUMENT=Orbitrap
COMMENT=DB#=CCMSLIB00010104561; origin=GNPS
NUM_PEAKS=10
COMPOUND_NAME=Deoxypeganine
PRECURSOR_MZ=173.107
COLLISION_ENERGY=102040
PARENT_MASS=172.09972354800925
74.01461 0.0002030578574430867
92.399727 0.0002395421634676525
117.057961 0.00024080334935492145
150.013489 0.00030184613221729563
154.921982 0.00027293587110913066
171.091324 0.0003972319769329933
172.099808 0.00030010680442771044
172.519196 0.00044851096355821396
173.10733 1.0
173.699081 0.00043841454686727524
END IONS

BEGIN IONS
CHARGE=1+
PRECURSORTYPE=M+H
FORMULA=C27H24N4O5S
ONTOLOGY=
INCHIKEY=FVPFSLOUODJMBE-UHFFFAOYSA-N
INCHI=InChI=1S/C27H24N4O5S/c1-33-21-13-18(14-22(34-2)24(21)35-3)25-30-29-23(36-25)16-37-27-28-20-12-8-7-11-19(20)26(32)31(27)15-17-9-5-4-6-10-17/h4-14H,15-16H2,1-3H3
SMILES=COc1cc(-c2nnc(CSc3nc4ccccc4c(=O)n3Cc3ccccc3)o2)cc(OC)c1OC
IONMODE=positive
INSTRUMENTTYPE=LC-ESI-Orbitrap
INSTRUMENT=Orbitrap
COMMENT=DB#=CCMSLIB00010110425; origin=GNPS
NUM_PEAKS=41
COMPOUND_NAME="3-benzyl-2-{[5-(3,4,5-trimethoxyphenyl)(1,3,4-oxadiazol-2-yl)]methylthio}-3-hy droquinazolin-4-one "
PRECURSOR_MZ=517.154
COLLISION_ENERGY=102040
PARENT_MASS=516.1467235480093
52.002251 0.0013016956273624299
53.28915 0.0013476488591641295
53.816509 0.0015750704655296836
59.264111 0.0014700345071257989
59.75235 0.0018765799354122639
65.039017 0.0031032498782004904
73.941002 0.0023876924115740247
91.054352 0.2724238876152758
104.267601 0.0016468137764037657
112.189453 0.0016458759553465883
123.247589 0.0014137652436951463
133.064789 0.0062233805354301765
139.07547 0.002183716331637909
150.068237 0.002122757962921369
155.539154 0.0018428183773538723
162.067368 0.011533792271698014
163.038452 0.0036959527863366973
165.05397 0.0019792713411732046
165.090118 0.0022793740794700185
178.061874 0.006531923663241588
187.049118 0.002198252558024161
191.027145 0.0018582924247973016
193.085953 0.06492394505681555
195.065048 1.0
200.045471 0.014785686787461144
219.020355 0.0017668548717224913
249.08667 0.9380742688629811
268.100861 0.001808587908766892
269.117462 0.006052228192495275
280.106079 0.0017368445978928099
281.074188 0.0031956252523324784
285.110382 0.0024542777066336305
299.117432 0.002036478425661035
327.133392 0.057246004061703
339.134796 0.011559582350770396
393.117279 0.006786073169736702
394.12674 0.015655046907464727
418.032135 0.0017696683348940238
502.130341 0.0016547852553897748
517.153564 0.9728275726893378
529.826599 0.0015694435391866183
END IONS

BEGIN IONS
CHARGE=1+
PRECURSORTYPE=M+H
FORMULA=C19H19F3N2O5S
ONTOLOGY=
INCHIKEY=KQENPVPYQNPGGH-UHFFFAOYSA-N
INCHI=InChI=1S/C19H19F3N2O5S/c1-26-12-4-3-9(5-13(12)27-2)10-6-16(19(20,21)22)24-18(23-10)30-15-7-11(25)17-28-8-14(15)29-17/h3-6,11,14-15,17,25H,7-8H2,1-2H3
SMILES=COc1ccc(-c2cc(C(F)(F)F)nc(SC3CC(O)C4OCC3O4)n2)cc1OC
IONMODE=positive
INSTRUMENTTYPE=LC-ESI-Orbitrap
INSTRUMENT=Orbitrap
COMMENT=DB#=CCMSLIB00010109660; origin=GNPS
NUM_PEAKS=60
COMPOUND_NAME="4-[4-(3,4-dimethoxyphenyl)-6-(trifluoromethyl)pyrimidin-2-ylthio]-7,8-dioxabic yclo[3.2.1]octan-2-ol "
PRECURSOR_MZ=445.104
COLLISION_ENERGY=102040
PARENT_MASS=444.0967235480092
53.00227 0.0005160492062024865
53.03886 0.002429832865322237
53.71891 0.0004928269919233746
55.018108 0.0031301419939746703
55.05476 0.0065377363258723245
55.66869 0.0005016301842644758
65.038612 0.0009722974161568025
67.054527 0.0006218392934739962
68.179764 0.0005967957290553462
69.03389 0.006970458763190939
69.348824 0.0004538197431015984
71.049561 0.01206006994895211
76.070374 0.000538664303768419
80.601791 0.0004910056417838364
81.033783 0.02708969952124294
83.049408 0.037887270265138495
85.028267 0.0028886613213075655
93.23951 0.0007312720810245823
98.266212 0.000517566997985435
99.043602 0.0005348698243110478
101.059593 0.001043026513242202
111.043953 0.0161207700850525
124.051712 0.0010588115477848663
129.05426 0.0028290121042376898
139.075684 0.0008290178718464651
181.030945 0.0009093090571644401
185.442123 0.0005298611114273177
206.028458 0.00088927420562952
222.058167 0.003229860914114386
231.062531 0.0007658777336758079
258.073273 0.006985029564307244
269.051819 0.0006233570852569447
270.037201 0.0011488166005137119
273.029449 0.0035095899397117928
282.027283 0.0008859350637070334
283.068604 0.004089082842441526
284.024323 0.0006930237280942804
285.031067 0.002657349853586216
297.050873 0.002302186576376269
298.115387 0.0006233570852569447
300.029846 0.01252147865096845
301.024994 0.01071136017062408
301.078552 0.002242082021771509
302.033386 0.016535582579332322
315.606781 0.0006329191734895202
317.056213 0.9990651920408821
329.055511 0.000997948097288632
343.0755 0.0008868457387768025
355.071198 0.000644150832683339
365.061493 0.0007713417840944225
365.109283 0.0010416605006375484
367.070343 0.005080807993420069
368.081604 0.0009914215926219534
369.088257 0.005230917600753675
371.070221 0.0009334419465133211
381.085999 0.003907251386844297
409.083252 0.006168002247546072
427.092804 0.03233943774010518
445.103577 1.0
447.540161 0.0007239866804664295
END IONS

BEGIN IONS
CHARGE=1+
PRECURSORTYPE=M+H
FORMULA=C10H13N5
ONTOLOGY=
INCHIKEY=HYVABZIGRDEKCD-UHFFFAOYSA-N
INCHI=InChI=1S/C10H13N5/c1-7(2)3-4-11-9-8-10(13-5-12-8)15-6-14-9/h3,5-6H,4H2,1-2H3,(H2,11,12,13,14,15)
SMILES=CC(C)=CCNc1nc[nH]c2ncnc1-2
IONMODE=positive
INSTRUMENTTYPE=LC-ESI-Orbitrap
INSTRUMENT=Orbitrap
COMMENT=DB#=CCMSLIB00010103646; origin=GNPS
NUM_PEAKS=13
COMPOUND_NAME=Isopentenyladenine
PRECURSOR_MZ=204.124
COLLISION_ENERGY=102040
PARENT_MASS=203.11672354800925
64.314667 0.001940616723818267
69.070549 0.14279002091606294
73.935417 0.0017053902785158443
78.13591 0.001663887576007092
78.714417 0.0018253108178916781
82.379997 0.001950395029635729
98.590477 0.0017183197584105029
119.036171 0.0023497029158142386
136.061859 1.0
148.061737 0.28839467825082077
204.124329 0.523530911045797
208.33992 0.001756331037371146
213.55307 0.0026170307387558375
END IONS

BEGIN IONS
CHARGE=1+
PRECURSORTYPE=M+H
FORMULA=C10H13N5
ONTOLOGY=
INCHIKEY=HYVABZIGRDEKCD-UHFFFAOYSA-N
INCHI=InChI=1S/C10H13N5/c1-7(2)3-4-11-9-8-10(13-5-12-8)15-6-14-9/h3,5-6H,4H2,1-2H3,(H2,11,12,13,14,15)
SMILES=CC(C)=CCNc1nc[nH]c2ncnc1-2
IONMODE=positive
INSTRUMENTTYPE=LC-ESI-Orbitrap
INSTRUMENT=Orbitrap
COMMENT=DB#=CCMSLIB00010103647; origin=GNPS
NUM_PEAKS=24
COMPOUND_NAME=Isopentenyladenine
PRECURSOR_MZ=204.124
COLLISION_ENERGY=102040
PARENT_MASS=203.11672354800925
60.537891 0.0004068500534079725
61.571308 0.00035607665609564535
62.59465 0.0004035215751397199
67.054619 0.000519157987518545
69.070251 0.14647810611617473
73.953262 0.00048797465933589075
82.40181 0.00033674045395253407
84.959862 0.018409376086339146
96.080879 0.0007255659513146304
99.564972 0.0004116312149882166
102.969772 0.0006100705761505618
115.090088 0.0004061025561697632
119.035156 0.002349383819691706
135.653107 0.0004522358291166027
136.061783 1.0
136.473068 0.0005023745589625258
137.044601 0.0006332147830920977
148.061691 0.26529356783421787
162.077225 0.0005293972893098643
162.973434 0.01271898989372451
180.967087 0.0005321898261620423
180.984177 0.013594069396402468
198.994171 0.0008417100976665788
204.124268 0.463651353071548
END IONS

BEGIN IONS
CHARGE=1+
PRECURSORTYPE=M+H
FORMULA=C21H24N2O2
ONTOLOGY=
INCHIKEY=CMKFQVZJOWHHDV-UHFFFAOYSA-N
INCHI=InChI=1S/C21H24N2O2/c1-3-14-10-13-11-21(20(24)25-2)18-16(8-9-23(12-13)19(14)21)15-6-4-5-7-17(15)22-18/h4-7,10,13,19,22H,3,8-9,11-12H2,1-2H3/t13?,19?,21-/m0/s1
SMILES=CCC1=CC2CN3CCc4c([nH]c5ccccc45)C(C(=O)OC)(C2)C13
IONMODE=positive
INSTRUMENTTYPE=LC-ESI-Orbitrap
INSTRUMENT=Orbitrap
COMMENT=DB#=CCMSLIB00010104194; origin=GNPS
NUM_PEAKS=49
COMPOUND_NAME=Catharanthine
PRECURSOR_MZ=337.191
COLLISION_ENERGY=102040
PARENT_MASS=336.1837235480092
51.46175 0.00026808319674867276
52.685471 0.0003770316021811935
52.687939 0.00037839777798583156
58.85358 0.0002594911031339612
60.543812 0.00023876802677204196
61.138409 0.0002614333771694707
61.53968 0.0002885922937676969
63.533859 0.00027776164702731336
77.038582 0.0007557091993077341
79.054207 0.0003370503849587138
89.18235 0.00027442027728825886
90.003593 0.0002665030416011396
91.05423 0.012079199746227084
91.060738 0.00045740553536248956
93.069923 0.2224008785135902
95.049088 0.0006422836876238693
105.069687 0.0012932746885086245
117.069603 0.00039943359338736673
118.662376 0.00029723376723076887
121.100883 0.0003660692758451822
130.064972 0.0022910603644285482
131.086304 0.0003002953178291144
133.064651 0.022355985647450796
137.059082 0.000637477382383456
143.072952 0.0014347808739601099
144.080627 0.9678091451742523
146.09639 0.0019871932375680307
156.080688 0.003589980815599713
164.830734 0.00026312875196317815
165.090805 0.11548804211008125
168.080032 0.0005777277658673583
169.084732 0.0006416252896457305
170.096786 0.00050948481543327
171.09198 0.0013051423120645767
173.107086 0.19337319801411368
193.040894 0.0003049041036760861
219.104279 0.001176524267035159
228.101318 0.0003143850345612851
229.105438 0.0013860594235778373
230.107071 0.002443265517024789
234.128769 0.0013044674541369844
248.142349 0.004762669914412213
249.150726 0.00042570367271510556
276.137695 0.0014437350864627977
277.170502 0.0011327078815900205
305.164062 0.004954247266101155
308.163788 0.0039859907395007575
337.190063 1.0
338.814392 0.000367567131245448
END IONS

BEGIN IONS
CHARGE=1+
PRECURSORTYPE=M+H
FORMULA=C7H11NO5
ONTOLOGY=
INCHIKEY=RFMMMVDNIPUKGG-UHFFFAOYSA-N
INCHI=InChI=1S/C7H11NO5/c1-4(9)8-5(7(12)13)2-3-6(10)11/h5H,2-3H2,1H3,(H,8,9)(H,10,11)(H,12,13)/t5-/m0/s1
SMILES=CC(O)=NC(CCC(=O)O)C(=O)O
IONMODE=positive
INSTRUMENTTYPE=LC-ESI-Orbitrap
INSTRUMENT=Orbitrap
COMMENT=DB#=CCMSLIB00010114048; origin=GNPS
NUM_PEAKS=22
COMPOUND_NAME=N-Acetyl-L-glutamic acid
PRECURSOR_MZ=190.071
COLLISION_ENERGY=102040
PARENT_MASS=189.06372354800925
50.309631 0.0015722439445587032
56.05014 0.0019584148123601916
57.262321 0.001474971685666641
65.394203 0.0017278795587860032
81.496292 0.0014461142488619955
82.383293 0.0017616006085352516
84.044991 0.21530209359082814
86.089706 0.0017619248493982251
91.89035 0.001586510542529539
100.656662 0.002376037043870113
102.055367 0.15530391582447806
102.527046 0.0017204220189376118
126.055023 0.0035533556173270426
126.592842 0.001527822946331328
130.050064 1.0
139.164719 0.0019704117242902125
144.065445 0.046435182468166844
148.06044 0.19737416779529507
166.8517 0.0016435769344128825
172.060364 0.03808565600573517
190.071091 0.01194373642849338
209.194916 0.0017314462082787122
END IONS

BEGIN IONS
CHARGE=1+
PRECURSORTYPE=M+H
FORMULA=C25H17NO4
ONTOLOGY=
INCHIKEY=MPBPMDGZIQBQKR-UHFFFAOYSA-N
INCHI=InChI=1S/C25H17NO4/c1-15-12-18(26-24(27)23-14-17-7-3-4-8-21(17)29-23)10-11-19(15)20-13-16-6-2-5-9-22(16)30-25(20)28/h2-14H,1H3,(H,26,27)
SMILES=Cc1cc(NC(=O)c2cc3ccccc3o2)ccc1-c1cc2ccccc2oc1=O
IONMODE=positive
INSTRUMENTTYPE=LC-ESI-Orbitrap
INSTRUMENT=Orbitrap
COMMENT=DB#=CCMSLIB00010108251; origin=GNPS
NUM_PEAKS=43
COMPOUND_NAME=benzo[d]furan-2-yl-N-[3-methyl-4-(2-oxochromen-3-yl)phenyl]carboxamide
PRECURSOR_MZ=396.123
COLLISION_ENERGY=102040
PARENT_MASS=395.1157235480092
66.316071 0.0008932346709670138
73.804001 0.0006687873188005149
74.335632 0.0006961157449944065
89.038643 0.001897048251625978
91.048141 0.0011963777689325897
91.05423 0.020797185374534816
104.301537 0.0008241544825324544
107.048637 0.0011272975804980303
119.048927 0.028077427504390892
145.028168 0.15862557247359454
156.043411 0.0014157643014335532
159.043228 0.0007644368104791356
179.084991 0.0016245231126368921
186.756668 0.0007851861711078311
191.084518 0.001668299202743774
194.095444 0.0008876677693349248
197.095505 0.00514938400968236
200.654572 0.0008618575890406938
206.09671 0.0017515496862418327
207.080566 0.0011136333674010843
216.081039 0.001100728277253969
219.066574 0.0009354925151742352
222.09082 0.011424800394946366
223.073395 0.0025762102507408406
225.089691 0.0009638331053012339
234.090805 0.02581625327782964
234.116028 0.0015739149159815372
235.075104 0.037214990451498495
250.085632 0.12844714568505658
253.085297 0.0033894839709923937
263.081909 0.0010106456872074371
274.084564 0.0011113559985515935
278.080475 0.07528374118057284
290.080414 0.0010222855724381689
322.121246 0.001586313924162099
334.122955 0.001054674818297596
340.13269 0.004561316764547137
350.116028 0.00787008066187424
365.37854 0.0008699549005055506
368.128448 0.00981470061835625
378.11145 0.04663950187364196
396.122009 1.0
414.132111 0.01581860402856428
END IONS

BEGIN IONS
CHARGE=1+
PRECURSORTYPE=M+H
FORMULA=C15H12O3
ONTOLOGY=
INCHIKEY=JVSPTYZZNUXJHN-UHFFFAOYSA-N
INCHI=InChI=1S/C15H12O3/c16-11-5-3-4-10(8-11)15-9-13(17)12-6-1-2-7-14(12)18-15/h1-8,15-16H,9H2
SMILES=O=C1CC(c2cccc(O)c2)Oc2ccccc21
IONMODE=positive
INSTRUMENTTYPE=LC-ESI-Orbitrap
INSTRUMENT=Orbitrap
COMMENT=DB#=CCMSLIB00010109804; origin=GNPS
NUM_PEAKS=63
COMPOUND_NAME=3'-Hydroxyflavanone
PRECURSOR_MZ=241.086
COLLISION_ENERGY=102040
PARENT_MASS=240.07872354800926
63.028591 0.0005826039363880783
65.039062 0.003184022159848636
67.276337 0.0005988777893598124
79.021568 0.0056682686419127085
82.34478 0.0005843169735429976
84.959877 0.04078296076202745
91.054298 0.0076846846769683015
93.033203 0.0023912285645519508
95.049133 0.014953957843868654
102.970207 0.003982640081472047
103.053871 0.0008551481477357503
107.048798 0.006628597270960508
110.613426 0.0006096699234358044
118.631989 0.0008263691235331048
119.049103 0.03284474658613108
121.028328 0.5965023207370856
121.064781 0.012305259794932322
121.375504 0.0006180638054949092
123.043762 0.0033986657153600333
132.005768 0.002745142040758293
134.978241 0.0008202021897753952
139.038437 0.004614065576775328
140.674347 0.0005442319041178843
141.011261 0.010653035459012588
141.512527 0.0014326129726590705
143.345795 0.0006057299379794898
147.04393 0.601113988061844
147.507751 0.0008186604563359677
150.016769 0.0025313550038243557
152.062012 0.0024174380330222174
152.519394 0.0009080809958227589
153.069748 0.005678375561126733
162.973419 0.07263140493885742
165.070435 0.0014579659225518772
167.085388 0.04437913966134969
171.080719 0.005645999158898757
177.069595 0.011880940491658793
178.077286 0.0034092865457205335
179.085419 0.006214556190616496
180.983994 0.10993518723924363
181.046768 0.002250930821564054
181.064346 0.017777728290037747
188.032166 0.004152915974671032
193.076401 0.0005771222174923363
194.072464 0.0023967102834476926
195.080292 0.1806000255242536
197.037003 0.0008578890071836213
198.067657 0.002030462939725931
198.99469 0.00956114557646698
199.075195 0.10505731394061071
203.0 0.0008745054675863393
203.999802 0.010220150969964464
205.063904 0.009517977040163012
213.090607 0.011290285280642595
221.01178 0.000864055940941331
223.075089 0.5004350257854918
226.062134 0.1366381817138423
240.118469 0.0013015656303077385
241.085556 1.0
242.057022 0.0009000297211946379
250.573334 0.0006100125308667882
315.05304 0.0007657276082489591
366.476135 0.0006420463256637805
END IONS

BEGIN IONS
CHARGE=1+
PRECURSORTYPE=M+H
FORMULA=C7H7NO3
ONTOLOGY=
INCHIKEY=WJXSWCUQABXPFS-UHFFFAOYSA-N
INCHI=InChI=1S/C7H7NO3/c8-6-4(7(10)11)2-1-3-5(6)9/h1-3,9H,8H2,(H,10,11)
SMILES=Nc1c(O)cccc1C(=O)O
IONMODE=positive
INSTRUMENTTYPE=LC-ESI-Orbitrap
INSTRUMENT=Orbitrap
COMMENT=DB#=CCMSLIB00010102988; origin=GNPS
NUM_PEAKS=18
COMPOUND_NAME=2-Amino-3-hydroxybenzoic acid
PRECURSOR_MZ=154.05
COLLISION_ENERGY=102040
PARENT_MASS=153.04272354800926
50.714298 0.001085041768370446
53.611801 0.0010766695673358364
66.078796 0.0013425435784948805
80.050003 0.00825644038425901
80.202904 0.001175138208877941
82.4142 0.0015845795679029265
92.394699 0.0016139567772020175
95.036697 0.002212213801039641
99.430397 0.0014292817704419354
104.305 0.002163111163564529
107.153999 0.0012534033274790273
108.044998 0.021745271113034707
109.927002 0.0012451423856063232
118.693001 0.0017374612241291359
123.031998 0.004917333197790793
136.039001 1.0
136.233994 0.0017956659386368647
154.050003 0.014469745718648867
END IONS

BEGIN IONS
CHARGE=1+
PRECURSORTYPE=M+H
FORMULA=C7H7NO3
ONTOLOGY=
INCHIKEY=WJXSWCUQABXPFS-UHFFFAOYSA-N
INCHI=InChI=1S/C7H7NO3/c8-6-4(7(10)11)2-1-3-5(6)9/h1-3,9H,8H2,(H,10,11)
SMILES=Nc1c(O)cccc1C(=O)O
IONMODE=positive
INSTRUMENTTYPE=LC-ESI-Orbitrap
INSTRUMENT=Orbitrap
COMMENT=DB#=CCMSLIB00010112487; origin=GNPS
NUM_PEAKS=16
COMPOUND_NAME=2-Amino-3-hydroxybenzoic acid
PRECURSOR_MZ=154.05
COLLISION_ENERGY=102040
PARENT_MASS=153.04272354800926
54.802349 0.0008028872259153939
67.044937 0.0008709571932104229
73.941307 0.0008469022083702128
80.050133 0.005417962350049905
82.275291 0.0007829027074191949
93.881577 0.0011362240902556763
95.036911 0.0015000649312944515
101.699219 0.0009290226408165571
104.273209 0.0010486845429778472
108.044746 0.014481272519977653
123.03141 0.0034305203762641004
135.945511 0.0020029391709509552
136.039444 1.0
136.452133 0.0008754199936598808
154.049683 0.020715412413764962
170.233612 0.0008971700156305908
END IONS

BEGIN IONS
CHARGE=1+
PRECURSORTYPE=M+H
FORMULA=C7H7NO3
ONTOLOGY=
INCHIKEY=WJXSWCUQABXPFS-UHFFFAOYSA-N
INCHI=InChI=1S/C7H7NO3/c8-6-4(7(10)11)2-1-3-5(6)9/h1-3,9H,8H2,(H,10,11)
SMILES=Nc1c(O)cccc1C(=O)O
IONMODE=positive
INSTRUMENTTYPE=LC-ESI-Orbitrap
INSTRUMENT=Orbitrap
COMMENT=DB#=CCMSLIB00010126603; origin=GNPS
NUM_PEAKS=18
COMPOUND_NAME=2-Amino-3-hydroxybenzoic acid
PRECURSOR_MZ=154.05
COLLISION_ENERGY=102040
PARENT_MASS=153.04272354800926
50.714298 0.001085041768370446
53.611801 0.0010766695673358364
66.078796 0.0013425435784948805
80.050003 0.00825644038425901
80.202904 0.001175138208877941
82.4142 0.0015845795679029265
92.394699 0.0016139567772020175
95.036697 0.002212213801039641
99.430397 0.0014292817704419354
104.305 0.002163111163564529
107.153999 0.0012534033274790273
108.044998 0.021745271113034707
109.927002 0.0012451423856063232
118.693001 0.0017374612241291359
123.031998 0.004917333197790793
136.039001 1.0
136.233994 0.0017956659386368647
154.050003 0.014469745718648867
END IONS

