BEGIN IONS
PRECURSORTYPE=M-H+Na
FORMULA=C23H46NO4+
INCHIKEY=XOMRRQXKHMYMOC-UHFFFAOYSA-O
INCHI=InChI=1S/C23H45NO4/c1-5-6-7-8-9-10-11-12-13-14-15-16-17-18-23(27)28-21(19-22(25)26)20-24(2,3)4/h21H,5-20H2,1-4H3/p+1
SMILES=CCCCCCCCCCCCCCCC(=O)OC(CC(=O)O)C[N+](C)(C)C
COMMENT=DB#=CCMSLIB00010105398; origin=GNPS
NUM_PEAKS=14
COMPOUND_NAME=palmitoyl carnitine
PRECURSOR_MZ=422.324
COLLISION_ENERGY=102040
PARENT_MASS=421.31672354800924
76.044418 0.004195778093728898
80.043968 0.004183901649468445
100.112511 0.005420748487449991
107.010651 0.030887238251651673
117.538147 0.004282306473340776
219.681732 0.0041635420307362375
226.445084 0.004339992059748695
243.845917 0.003841181400809634
254.836487 0.004803173385906394
255.298843 0.004365441583163952
363.250183 1.0
422.324005 0.6046518335533303
422.374054 0.009594470327552333
438.009003 0.004737004625026722
END IONS

